@relation SET09120_CW1_40735842_CLEANING-weka.filters.unsupervised.attribute.Remove-R1-weka.filters.unsupervised.attribute.Discretize-B10-M-1.0-Rfirst-last-precision6

@attribute checking_status {<0,0<=X<200,'no checking',>=200}
@attribute credit_history {'critical/other existing credit','existing paid','delayed previously','no credits/ all paid','all paid'}
@attribute purpose {radio/tv,education,furniture/equipment,'new car','used car',business,'domestic appliance',repairs,other,retraining}
@attribute credit_amount {'\'(-inf-2067.4]\'','\'(2067.4-3884.8]\'','\'(3884.8-5702.2]\'','\'(5702.2-7519.6]\'','\'(7519.6-9337]\'','\'(9337-11154.4]\'','\'(11154.4-12971.8]\'','\'(12971.8-14789.2]\'','\'(14789.2-16606.6]\'','\'(16606.6-inf)\''}
@attribute saving_status {'no known savings',<100,500<=X<1000,>=1000,100<=X<500}
@attribute personal_status {'male single','female div/dep/mar','male div/sep','male mar/wid'}
@attribute age {'\'(-inf-24.6]\'','\'(24.6-30.2]\'','\'(30.2-35.8]\'','\'(35.8-41.4]\'','\'(41.4-47]\'','\'(47-52.6]\'','\'(52.6-58.2]\'','\'(58.2-63.8]\'','\'(63.8-69.4]\'','\'(69.4-inf)\''}
@attribute job {skilled,'unskilled resident','high qualif/self emp/mgmt','unemp/unskilled non res'}
@attribute class {good,bad}

@data
<0,'critical/other existing credit',radio/tv,'\'(-inf-2067.4]\'','no known savings','male single','\'(63.8-69.4]\'',skilled,good
0<=X<200,'existing paid',radio/tv,'\'(5702.2-7519.6]\'',<100,'female div/dep/mar','\'(-inf-24.6]\'',skilled,bad
'no checking','critical/other existing credit',education,'\'(2067.4-3884.8]\'',<100,'male single','\'(47-52.6]\'','unskilled resident',good
<0,'existing paid',furniture/equipment,'\'(7519.6-9337]\'',<100,'male single','\'(41.4-47]\'',skilled,good
<0,'delayed previously','new car','\'(3884.8-5702.2]\'',<100,'male single','\'(52.6-58.2]\'',skilled,bad
'no checking','existing paid',education,'\'(7519.6-9337]\'','no known savings','male single','\'(30.2-35.8]\'','unskilled resident',good
'no checking','existing paid',furniture/equipment,'\'(2067.4-3884.8]\'',500<=X<1000,'male single','\'(52.6-58.2]\'',skilled,good
0<=X<200,'existing paid','used car','\'(5702.2-7519.6]\'',<100,'male single','\'(30.2-35.8]\'','high qualif/self emp/mgmt',good
'no checking','existing paid',radio/tv,'\'(2067.4-3884.8]\'',>=1000,'male div/sep','\'(58.2-63.8]\'','unskilled resident',good
0<=X<200,'critical/other existing credit','new car','\'(3884.8-5702.2]\'',<100,'male mar/wid','\'(24.6-30.2]\'','high qualif/self emp/mgmt',bad
0<=X<200,'existing paid','new car','\'(-inf-2067.4]\'',<100,'female div/dep/mar','\'(24.6-30.2]\'',skilled,bad
<0,'existing paid',business,'\'(3884.8-5702.2]\'',<100,'female div/dep/mar','\'(-inf-24.6]\'',skilled,bad
0<=X<200,'existing paid',radio/tv,'\'(-inf-2067.4]\'',<100,'female div/dep/mar','\'(-inf-24.6]\'',skilled,good
<0,'critical/other existing credit','new car','\'(-inf-2067.4]\'',<100,'male single','\'(58.2-63.8]\'','unskilled resident',bad
<0,'existing paid','new car','\'(-inf-2067.4]\'',<100,'female div/dep/mar','\'(24.6-30.2]\'',skilled,good
<0,'existing paid',radio/tv,'\'(-inf-2067.4]\'',100<=X<500,'female div/dep/mar','\'(30.2-35.8]\'','unskilled resident',bad
'no checking','critical/other existing credit',radio/tv,'\'(2067.4-3884.8]\'','no known savings','male single','\'(52.6-58.2]\'',skilled,good
<0,'no credits/ all paid',business,'\'(7519.6-9337]\'','no known savings','male single','\'(24.6-30.2]\'',skilled,good
0<=X<200,'existing paid','used car','\'(11154.4-12971.8]\'',<100,'female div/dep/mar','\'(41.4-47]\'','high qualif/self emp/mgmt',bad
'no checking','existing paid',radio/tv,'\'(2067.4-3884.8]\'',500<=X<1000,'male single','\'(30.2-35.8]\'',skilled,good
'no checking','critical/other existing credit','new car','\'(2067.4-3884.8]\'',<100,'male single','\'(47-52.6]\'',skilled,good
<0,'existing paid',radio/tv,'\'(2067.4-3884.8]\'',500<=X<1000,'male single','\'(41.4-47]\'',skilled,good
<0,'critical/other existing credit','new car','\'(2067.4-3884.8]\'',<100,'male single','\'(47-52.6]\'','unskilled resident',good
0<=X<200,'critical/other existing credit','used car','\'(-inf-2067.4]\'',100<=X<500,'male single','\'(41.4-47]\'',skilled,good
'no checking','critical/other existing credit',furniture/equipment,'\'(2067.4-3884.8]\'','no known savings','male mar/wid','\'(24.6-30.2]\'',skilled,good
<0,'existing paid',furniture/equipment,'\'(-inf-2067.4]\'',<100,'male single','\'(35.8-41.4]\'','unskilled resident',good
'no checking','no credits/ all paid',radio/tv,'\'(-inf-2067.4]\'',<100,'male mar/wid','\'(35.8-41.4]\'','unskilled resident',good
>=200,'all paid',radio/tv,'\'(-inf-2067.4]\'',>=1000,'female div/dep/mar','\'(41.4-47]\'',skilled,good
0<=X<200,'existing paid',radio/tv,'\'(2067.4-3884.8]\'',<100,'male single','\'(30.2-35.8]\'',skilled,good
<0,'delayed previously',business,'\'(5702.2-7519.6]\'',<100,'male single','\'(58.2-63.8]\'',skilled,bad
0<=X<200,'existing paid',business,'\'(-inf-2067.4]\'',>=1000,'male mar/wid','\'(35.8-41.4]\'',skilled,good
<0,'existing paid',furniture/equipment,'\'(3884.8-5702.2]\'',<100,'male single','\'(24.6-30.2]\'',skilled,good
0<=X<200,'existing paid','new car','\'(5702.2-7519.6]\'',100<=X<500,'male single','\'(24.6-30.2]\'',skilled,good
'no checking','critical/other existing credit',business,'\'(-inf-2067.4]\'','no known savings','male single','\'(52.6-58.2]\'','unskilled resident',good
>=200,'existing paid',furniture/equipment,'\'(-inf-2067.4]\'',<100,'female div/dep/mar','\'(30.2-35.8]\'','high qualif/self emp/mgmt',good
0<=X<200,'critical/other existing credit',radio/tv,'\'(3884.8-5702.2]\'',<100,'male single','\'(24.6-30.2]\'','unskilled resident',bad
'no checking','critical/other existing credit',education,'\'(5702.2-7519.6]\'',<100,'male single','\'(30.2-35.8]\'',skilled,good
>=200,'existing paid',radio/tv,'\'(2067.4-3884.8]\'',<100,'male single','\'(35.8-41.4]\'',skilled,bad
>=200,'existing paid','domestic appliance','\'(-inf-2067.4]\'',<100,'male single','\'(35.8-41.4]\'',skilled,good
0<=X<200,'existing paid',radio/tv,'\'(-inf-2067.4]\'',<100,'male single','\'(-inf-24.6]\'',skilled,good
'no checking','existing paid',radio/tv,'\'(2067.4-3884.8]\'',500<=X<1000,'male single','\'(24.6-30.2]\'','high qualif/self emp/mgmt',good
0<=X<200,'existing paid',radio/tv,'\'(-inf-2067.4]\'',500<=X<1000,'male div/sep','\'(24.6-30.2]\'',skilled,good
0<=X<200,'delayed previously',repairs,'\'(5702.2-7519.6]\'',<100,'male single','\'(41.4-47]\'','unskilled resident',good
<0,'critical/other existing credit','used car','\'(5702.2-7519.6]\'',100<=X<500,'male mar/wid','\'(-inf-24.6]\'',skilled,good
<0,'critical/other existing credit','used car','\'(5702.2-7519.6]\'',<100,'female div/dep/mar','\'(52.6-58.2]\'','unskilled resident',bad
'no checking','critical/other existing credit','new car','\'(-inf-2067.4]\'',<100,'female div/dep/mar','\'(30.2-35.8]\'','high qualif/self emp/mgmt',good
'no checking','existing paid',radio/tv,'\'(2067.4-3884.8]\'',500<=X<1000,'male single','\'(35.8-41.4]\'',skilled,good
<0,'existing paid','used car','\'(-inf-2067.4]\'',500<=X<1000,'female div/dep/mar','\'(-inf-24.6]\'','unemp/unskilled non res',good
'no checking','critical/other existing credit','new car','\'(5702.2-7519.6]\'',<100,'male single','\'(35.8-41.4]\'','unskilled resident',good
'no checking','existing paid',radio/tv,'\'(2067.4-3884.8]\'',100<=X<500,'female div/dep/mar','\'(24.6-30.2]\'',skilled,good
0<=X<200,'delayed previously',furniture/equipment,'\'(2067.4-3884.8]\'','no known savings','male single','\'(24.6-30.2]\'','unskilled resident',good
0<=X<200,'delayed previously','used car','\'(5702.2-7519.6]\'',<100,'male single','\'(24.6-30.2]\'','high qualif/self emp/mgmt',good
'no checking','existing paid',radio/tv,'\'(-inf-2067.4]\'',<100,'male single','\'(24.6-30.2]\'',skilled,good
'no checking','existing paid','used car','\'(2067.4-3884.8]\'','no known savings','male single','\'(30.2-35.8]\'',skilled,good
0<=X<200,'delayed previously','new car','\'(2067.4-3884.8]\'',<100,'male single','\'(52.6-58.2]\'',skilled,bad
'no checking','all paid','new car','\'(-inf-2067.4]\'','no known savings','male single','\'(24.6-30.2]\'','unskilled resident',good
0<=X<200,'existing paid',radio/tv,'\'(5702.2-7519.6]\'','no known savings','male single','\'(47-52.6]\'','high qualif/self emp/mgmt',bad
'no checking','critical/other existing credit',radio/tv,'\'(9337-11154.4]\'',<100,'female div/dep/mar','\'(30.2-35.8]\'',skilled,good
>=200,'existing paid','new car','\'(-inf-2067.4]\'',<100,'female div/dep/mar','\'(-inf-24.6]\'','high qualif/self emp/mgmt',good
<0,'critical/other existing credit',furniture/equipment,'\'(5702.2-7519.6]\'',<100,'female div/dep/mar','\'(-inf-24.6]\'','unskilled resident',bad
0<=X<200,'existing paid',business,'\'(-inf-2067.4]\'',<100,'male mar/wid','\'(24.6-30.2]\'',skilled,good
0<=X<200,'critical/other existing credit',radio/tv,'\'(-inf-2067.4]\'','no known savings','male single','\'(47-52.6]\'',skilled,good
0<=X<200,'no credits/ all paid',business,'\'(-inf-2067.4]\'',<100,'male single','\'(58.2-63.8]\'','high qualif/self emp/mgmt',bad
0<=X<200,'no credits/ all paid',business,'\'(12971.8-14789.2]\'',<100,'male single','\'(24.6-30.2]\'',skilled,bad
'no checking','existing paid',radio/tv,'\'(2067.4-3884.8]\'',<100,'female div/dep/mar','\'(24.6-30.2]\'',skilled,good
'no checking','existing paid',repairs,'\'(3884.8-5702.2]\'','no known savings','male single','\'(47-52.6]\'',skilled,good
'no checking','existing paid',radio/tv,'\'(2067.4-3884.8]\'',<100,'female div/dep/mar','\'(24.6-30.2]\'',skilled,good
0<=X<200,'existing paid','new car','\'(-inf-2067.4]\'',>=1000,'male mar/wid','\'(-inf-24.6]\'',skilled,good
'no checking','existing paid',education,'\'(-inf-2067.4]\'',<100,'male single','\'(35.8-41.4]\'',skilled,bad
'no checking','existing paid',radio/tv,'\'(2067.4-3884.8]\'','no known savings','female div/dep/mar','\'(24.6-30.2]\'',skilled,good
'no checking','existing paid','used car','\'(7519.6-9337]\'',<100,'female div/dep/mar','\'(24.6-30.2]\'',skilled,good
'no checking','critical/other existing credit',radio/tv,'\'(-inf-2067.4]\'','no known savings','male single','\'(41.4-47]\'','unskilled resident',good
<0,'critical/other existing credit',other,'\'(-inf-2067.4]\'',<100,'male single','\'(47-52.6]\'','high qualif/self emp/mgmt',good
0<=X<200,'critical/other existing credit',business,'\'(5702.2-7519.6]\'',<100,'female div/dep/mar','\'(35.8-41.4]\'','unskilled resident',good
<0,'existing paid',education,'\'(-inf-2067.4]\'','no known savings','male single','\'(35.8-41.4]\'','high qualif/self emp/mgmt',bad
<0,'critical/other existing credit','used car','\'(-inf-2067.4]\'',<100,'male single','\'(63.8-69.4]\'','high qualif/self emp/mgmt',good
<0,'existing paid',radio/tv,'\'(3884.8-5702.2]\'',<100,'male single','\'(30.2-35.8]\'',skilled,bad
0<=X<200,'delayed previously',radio/tv,'\'(3884.8-5702.2]\'',<100,'male single','\'(47-52.6]\'',skilled,good
'no checking','no credits/ all paid','used car','\'(9337-11154.4]\'','no known savings','male single','\'(35.8-41.4]\'','unskilled resident',good
0<=X<200,'existing paid',furniture/equipment,'\'(2067.4-3884.8]\'',<100,'male mar/wid','\'(-inf-24.6]\'',skilled,good
'no checking','existing paid',radio/tv,'\'(5702.2-7519.6]\'','no known savings','female div/dep/mar','\'(41.4-47]\'',skilled,bad
'no checking','existing paid',radio/tv,'\'(-inf-2067.4]\'',500<=X<1000,'male single','\'(41.4-47]\'',skilled,good
'no checking','existing paid',business,'\'(-inf-2067.4]\'',100<=X<500,'female div/dep/mar','\'(-inf-24.6]\'','unskilled resident',good
<0,'existing paid',other,'\'(-inf-2067.4]\'',<100,'female div/dep/mar','\'(52.6-58.2]\'','unskilled resident',good
<0,'existing paid',radio/tv,'\'(2067.4-3884.8]\'',<100,'male single','\'(47-52.6]\'','unskilled resident',good
'no checking','critical/other existing credit',business,'\'(-inf-2067.4]\'',<100,'female div/dep/mar','\'(24.6-30.2]\'','high qualif/self emp/mgmt',good
0<=X<200,'critical/other existing credit',furniture/equipment,'\'(-inf-2067.4]\'',<100,'female div/dep/mar','\'(24.6-30.2]\'',skilled,good
0<=X<200,'existing paid',education,'\'(11154.4-12971.8]\'',100<=X<500,'male single','\'(41.4-47]\'',skilled,bad
<0,'existing paid','new car','\'(2067.4-3884.8]\'',100<=X<500,'male single','\'(24.6-30.2]\'','high qualif/self emp/mgmt',good
<0,'no credits/ all paid',repairs,'\'(-inf-2067.4]\'',<100,'male single','\'(24.6-30.2]\'',skilled,bad
'no checking','critical/other existing credit',radio/tv,'\'(-inf-2067.4]\'',<100,'male single','\'(52.6-58.2]\'',skilled,good
<0,'critical/other existing credit','used car','\'(-inf-2067.4]\'',<100,'male single','\'(52.6-58.2]\'',skilled,good
'no checking','critical/other existing credit',radio/tv,'\'(-inf-2067.4]\'','no known savings','female div/dep/mar','\'(30.2-35.8]\'','unskilled resident',bad
>=200,'critical/other existing credit',furniture/equipment,'\'(2067.4-3884.8]\'','no known savings','male single','\'(-inf-24.6]\'',skilled,good
0<=X<200,'existing paid','new car','\'(-inf-2067.4]\'',>=1000,'male single','\'(52.6-58.2]\'',skilled,good
0<=X<200,'no credits/ all paid',business,'\'(14789.2-16606.6]\'',<100,'male single','\'(52.6-58.2]\'',skilled,bad
'no checking','critical/other existing credit',education,'\'(-inf-2067.4]\'','no known savings','female div/dep/mar','\'(58.2-63.8]\'',skilled,good
0<=X<200,'existing paid',business,'\'(2067.4-3884.8]\'',100<=X<500,'male single','\'(30.2-35.8]\'',skilled,good
0<=X<200,'critical/other existing credit',radio/tv,'\'(2067.4-3884.8]\'',<100,'male single','\'(35.8-41.4]\'',skilled,good
0<=X<200,'delayed previously','used car','\'(5702.2-7519.6]\'','no known savings','male single','\'(35.8-41.4]\'','high qualif/self emp/mgmt',good
'no checking','existing paid','new car','\'(-inf-2067.4]\'',100<=X<500,'male mar/wid','\'(35.8-41.4]\'','unskilled resident',good
0<=X<200,'existing paid',radio/tv,'\'(2067.4-3884.8]\'',<100,'male single','\'(-inf-24.6]\'',skilled,good
'no checking','delayed previously',radio/tv,'\'(-inf-2067.4]\'',<100,'female div/dep/mar','\'(-inf-24.6]\'',skilled,good
0<=X<200,'critical/other existing credit',furniture/equipment,'\'(-inf-2067.4]\'',<100,'male single','\'(30.2-35.8]\'',skilled,good
'no checking','existing paid','used car','\'(2067.4-3884.8]\'','no known savings','male mar/wid','\'(24.6-30.2]\'',skilled,good
0<=X<200,'critical/other existing credit',other,'\'(11154.4-12971.8]\'',<100,'male single','\'(35.8-41.4]\'','high qualif/self emp/mgmt',bad
'no checking','all paid','new car','\'(5702.2-7519.6]\'',<100,'male single','\'(35.8-41.4]\'','high qualif/self emp/mgmt',bad
0<=X<200,'existing paid','new car','\'(5702.2-7519.6]\'',<100,'male single','\'(30.2-35.8]\'',skilled,good
<0,'existing paid',furniture/equipment,'\'(7519.6-9337]\'','no known savings','female div/dep/mar','\'(24.6-30.2]\'',skilled,good
0<=X<200,'existing paid',business,'\'(-inf-2067.4]\'',500<=X<1000,'male mar/wid','\'(30.2-35.8]\'',skilled,good
0<=X<200,'delayed previously',business,'\'(-inf-2067.4]\'',100<=X<500,'male div/sep','\'(30.2-35.8]\'',skilled,good
>=200,'existing paid',education,'\'(-inf-2067.4]\'',<100,'female div/dep/mar','\'(-inf-24.6]\'',skilled,good
0<=X<200,'existing paid','new car','\'(5702.2-7519.6]\'',<100,'male single','\'(24.6-30.2]\'','unskilled resident',good
'no checking','critical/other existing credit','new car','\'(7519.6-9337]\'',<100,'female div/dep/mar','\'(24.6-30.2]\'',skilled,bad
<0,'existing paid',radio/tv,'\'(-inf-2067.4]\'',500<=X<1000,'male mar/wid','\'(30.2-35.8]\'',skilled,good
'no checking','critical/other existing credit',radio/tv,'\'(2067.4-3884.8]\'','no known savings','male single','\'(41.4-47]\'',skilled,good
<0,'existing paid',radio/tv,'\'(5702.2-7519.6]\'','no known savings','female div/dep/mar','\'(24.6-30.2]\'','high qualif/self emp/mgmt',bad
<0,'critical/other existing credit',furniture/equipment,'\'(2067.4-3884.8]\'','no known savings','female div/dep/mar','\'(24.6-30.2]\'',skilled,good
<0,'critical/other existing credit',furniture/equipment,'\'(3884.8-5702.2]\'',500<=X<1000,'female div/dep/mar','\'(-inf-24.6]\'',skilled,bad
0<=X<200,'critical/other existing credit','new car','\'(2067.4-3884.8]\'',500<=X<1000,'male div/sep','\'(35.8-41.4]\'','high qualif/self emp/mgmt',good
<0,'existing paid',radio/tv,'\'(-inf-2067.4]\'',<100,'female div/dep/mar','\'(24.6-30.2]\'',skilled,bad
'no checking','critical/other existing credit','used car','\'(2067.4-3884.8]\'',<100,'female div/dep/mar','\'(35.8-41.4]\'','high qualif/self emp/mgmt',good
'no checking','existing paid',furniture/equipment,'\'(-inf-2067.4]\'',<100,'male single','\'(-inf-24.6]\'','unskilled resident',good
>=200,'critical/other existing credit','new car','\'(-inf-2067.4]\'',<100,'male single','\'(58.2-63.8]\'',skilled,good
0<=X<200,'existing paid',furniture/equipment,'\'(-inf-2067.4]\'','no known savings','female div/dep/mar','\'(24.6-30.2]\'',skilled,bad
<0,'critical/other existing credit','new car','\'(2067.4-3884.8]\'',<100,'male single','\'(24.6-30.2]\'',skilled,good
<0,'existing paid',radio/tv,'\'(-inf-2067.4]\'',<100,'male mar/wid','\'(35.8-41.4]\'','unskilled resident',good
0<=X<200,'existing paid',repairs,'\'(-inf-2067.4]\'',<100,'male single','\'(24.6-30.2]\'',skilled,bad
0<=X<200,'critical/other existing credit','used car','\'(-inf-2067.4]\'',<100,'male single','\'(30.2-35.8]\'','high qualif/self emp/mgmt',good
<0,'critical/other existing credit','new car','\'(2067.4-3884.8]\'',<100,'female div/dep/mar','\'(24.6-30.2]\'',skilled,bad
0<=X<200,'existing paid','new car','\'(7519.6-9337]\'','no known savings','female div/dep/mar','\'(-inf-24.6]\'',skilled,good
<0,'delayed previously',education,'\'(5702.2-7519.6]\'',<100,'male single','\'(24.6-30.2]\'',skilled,bad
'no checking','existing paid',furniture/equipment,'\'(2067.4-3884.8]\'',<100,'male single','\'(24.6-30.2]\'','unskilled resident',good
'no checking','existing paid',furniture/equipment,'\'(-inf-2067.4]\'',<100,'male single','\'(41.4-47]\'',skilled,good
'no checking','existing paid',radio/tv,'\'(9337-11154.4]\'',100<=X<500,'female div/dep/mar','\'(-inf-24.6]\'',skilled,good
'no checking','critical/other existing credit',radio/tv,'\'(-inf-2067.4]\'','no known savings','female div/dep/mar','\'(35.8-41.4]\'',skilled,good
'no checking','delayed previously','used car','\'(7519.6-9337]\'',>=1000,'male single','\'(24.6-30.2]\'',skilled,good
0<=X<200,'existing paid',radio/tv,'\'(-inf-2067.4]\'',500<=X<1000,'male single','\'(63.8-69.4]\'','unskilled resident',bad
0<=X<200,'critical/other existing credit',radio/tv,'\'(2067.4-3884.8]\'','no known savings','male single','\'(30.2-35.8]\'',skilled,good
>=200,'existing paid',radio/tv,'\'(-inf-2067.4]\'',<100,'female div/dep/mar','\'(41.4-47]\'','unskilled resident',good
>=200,'existing paid','new car','\'(-inf-2067.4]\'',>=1000,'male mar/wid','\'(24.6-30.2]\'','unemp/unskilled non res',good
0<=X<200,'existing paid',radio/tv,'\'(3884.8-5702.2]\'',<100,'female div/dep/mar','\'(24.6-30.2]\'','high qualif/self emp/mgmt',good
<0,'existing paid',radio/tv,'\'(2067.4-3884.8]\'',<100,'male single','\'(24.6-30.2]\'','high qualif/self emp/mgmt',good
<0,'existing paid',furniture/equipment,'\'(2067.4-3884.8]\'',<100,'male single','\'(-inf-24.6]\'',skilled,bad
'no checking','critical/other existing credit',furniture/equipment,'\'(2067.4-3884.8]\'',<100,'female div/dep/mar','\'(-inf-24.6]\'',skilled,good
0<=X<200,'all paid',business,'\'(2067.4-3884.8]\'',100<=X<500,'male single','\'(24.6-30.2]\'',skilled,good
<0,'critical/other existing credit','new car','\'(-inf-2067.4]\'',<100,'female div/dep/mar','\'(35.8-41.4]\'',skilled,good
'no checking','critical/other existing credit','new car','\'(-inf-2067.4]\'',100<=X<500,'female div/dep/mar','\'(47-52.6]\'',skilled,good
<0,'critical/other existing credit',furniture/equipment,'\'(3884.8-5702.2]\'',<100,'male single','\'(24.6-30.2]\'',skilled,good
'no checking','critical/other existing credit',radio/tv,'\'(-inf-2067.4]\'',>=1000,'male single','\'(41.4-47]\'',skilled,good
'no checking','existing paid',radio/tv,'\'(-inf-2067.4]\'',100<=X<500,'male single','\'(41.4-47]\'',skilled,good
'no checking','existing paid',radio/tv,'\'(-inf-2067.4]\'',<100,'male single','\'(35.8-41.4]\'',skilled,good
>=200,'existing paid',radio/tv,'\'(5702.2-7519.6]\'',<100,'male single','\'(-inf-24.6]\'',skilled,good
0<=X<200,'critical/other existing credit','used car','\'(7519.6-9337]\'',>=1000,'female div/dep/mar','\'(24.6-30.2]\'',skilled,good
0<=X<200,'delayed previously',business,'\'(5702.2-7519.6]\'',100<=X<500,'male single','\'(35.8-41.4]\'','high qualif/self emp/mgmt',good
<0,'existing paid',furniture/equipment,'\'(-inf-2067.4]\'',<100,'female div/dep/mar','\'(-inf-24.6]\'',skilled,bad
<0,'critical/other existing credit',repairs,'\'(-inf-2067.4]\'',100<=X<500,'male single','\'(47-52.6]\'',skilled,good
<0,'all paid',retraining,'\'(-inf-2067.4]\'',<100,'male mar/wid','\'(41.4-47]\'','unskilled resident',good
0<=X<200,'existing paid','new car','\'(2067.4-3884.8]\'',100<=X<500,'male single','\'(35.8-41.4]\'',skilled,good
'no checking','critical/other existing credit',radio/tv,'\'(-inf-2067.4]\'','no known savings','male single','\'(30.2-35.8]\'','unskilled resident',good
'no checking','critical/other existing credit',radio/tv,'\'(2067.4-3884.8]\'',100<=X<500,'male single','\'(35.8-41.4]\'',skilled,good
'no checking','critical/other existing credit','new car','\'(-inf-2067.4]\'',<100,'female div/dep/mar','\'(24.6-30.2]\'',skilled,good
'no checking','existing paid','domestic appliance','\'(-inf-2067.4]\'',500<=X<1000,'male single','\'(35.8-41.4]\'',skilled,good
0<=X<200,'existing paid','new car','\'(5702.2-7519.6]\'',<100,'male single','\'(69.4-inf)\'','high qualif/self emp/mgmt',good
'no checking','existing paid','new car','\'(-inf-2067.4]\'',500<=X<1000,'male single','\'(35.8-41.4]\'',skilled,good
'no checking','existing paid',furniture/equipment,'\'(2067.4-3884.8]\'',500<=X<1000,'male single','\'(30.2-35.8]\'',skilled,good
<0,'existing paid',furniture/equipment,'\'(-inf-2067.4]\'',<100,'female div/dep/mar','\'(30.2-35.8]\'',skilled,bad
0<=X<200,'existing paid',furniture/equipment,'\'(-inf-2067.4]\'',>=1000,'female div/dep/mar','\'(-inf-24.6]\'',skilled,good
'no checking','existing paid',furniture/equipment,'\'(3884.8-5702.2]\'',<100,'female div/dep/mar','\'(24.6-30.2]\'',skilled,good
0<=X<200,'critical/other existing credit',business,'\'(-inf-2067.4]\'',<100,'male div/sep','\'(30.2-35.8]\'',skilled,bad
<0,'no credits/ all paid','new car','\'(-inf-2067.4]\'',<100,'male single','\'(30.2-35.8]\'',skilled,bad
'no checking','existing paid',furniture/equipment,'\'(-inf-2067.4]\'',<100,'female div/dep/mar','\'(24.6-30.2]\'',skilled,good
0<=X<200,'delayed previously',furniture/equipment,'\'(-inf-2067.4]\'',<100,'female div/dep/mar','\'(30.2-35.8]\'','high qualif/self emp/mgmt',bad
0<=X<200,'existing paid',radio/tv,'\'(-inf-2067.4]\'',<100,'male single','\'(30.2-35.8]\'',skilled,good
<0,'delayed previously',education,'\'(2067.4-3884.8]\'',<100,'male single','\'(24.6-30.2]\'',skilled,bad
'no checking','all paid','used car','\'(5702.2-7519.6]\'','no known savings','female div/dep/mar','\'(52.6-58.2]\'','high qualif/self emp/mgmt',bad
<0,'existing paid',furniture/equipment,'\'(2067.4-3884.8]\'',<100,'male div/sep','\'(41.4-47]\'',skilled,good
<0,'critical/other existing credit',radio/tv,'\'(-inf-2067.4]\'',500<=X<1000,'male single','\'(47-52.6]\'',skilled,good
'no checking','existing paid',radio/tv,'\'(-inf-2067.4]\'',<100,'male single','\'(30.2-35.8]\'','high qualif/self emp/mgmt',good
<0,'critical/other existing credit','new car','\'(-inf-2067.4]\'',<100,'male single','\'(63.8-69.4]\'',skilled,good
'no checking','delayed previously',business,'\'(9337-11154.4]\'',<100,'male div/sep','\'(24.6-30.2]\'',skilled,bad
0<=X<200,'delayed previously',business,'\'(3884.8-5702.2]\'',<100,'male div/sep','\'(24.6-30.2]\'','high qualif/self emp/mgmt',bad
<0,'all paid','new car','\'(-inf-2067.4]\'','no known savings','male single','\'(35.8-41.4]\'','unskilled resident',bad
'no checking','critical/other existing credit',furniture/equipment,'\'(2067.4-3884.8]\'',>=1000,'male single','\'(47-52.6]\'',skilled,good
0<=X<200,'critical/other existing credit','new car','\'(-inf-2067.4]\'',<100,'male single','\'(35.8-41.4]\'',skilled,bad
'no checking','critical/other existing credit',radio/tv,'\'(-inf-2067.4]\'',<100,'male single','\'(30.2-35.8]\'',skilled,good
0<=X<200,'all paid','used car','\'(3884.8-5702.2]\'',<100,'female div/dep/mar','\'(69.4-inf)\'','high qualif/self emp/mgmt',bad
0<=X<200,'critical/other existing credit','new car','\'(-inf-2067.4]\'',<100,'male single','\'(63.8-69.4]\'','unemp/unskilled non res',good
<0,'existing paid',radio/tv,'\'(-inf-2067.4]\'',100<=X<500,'male mar/wid','\'(-inf-24.6]\'',skilled,bad
0<=X<200,'no credits/ all paid',furniture/equipment,'\'(2067.4-3884.8]\'',<100,'female div/dep/mar','\'(30.2-35.8]\'',skilled,good
'no checking','existing paid',business,'\'(3884.8-5702.2]\'',>=1000,'male single','\'(52.6-58.2]\'','high qualif/self emp/mgmt',bad
0<=X<200,'no credits/ all paid',business,'\'(2067.4-3884.8]\'',100<=X<500,'male single','\'(30.2-35.8]\'','unskilled resident',bad
0<=X<200,'existing paid',business,'\'(3884.8-5702.2]\'',<100,'male single','\'(35.8-41.4]\'',skilled,bad
'no checking','existing paid',radio/tv,'\'(2067.4-3884.8]\'',<100,'male mar/wid','\'(24.6-30.2]\'',skilled,good
0<=X<200,'existing paid',radio/tv,'\'(2067.4-3884.8]\'',100<=X<500,'male single','\'(-inf-24.6]\'',skilled,bad
0<=X<200,'critical/other existing credit',education,'\'(-inf-2067.4]\'',<100,'female div/dep/mar','\'(30.2-35.8]\'','high qualif/self emp/mgmt',bad
'no checking','critical/other existing credit',radio/tv,'\'(-inf-2067.4]\'',<100,'female div/dep/mar','\'(24.6-30.2]\'',skilled,good
0<=X<200,'existing paid',furniture/equipment,'\'(-inf-2067.4]\'',100<=X<500,'female div/dep/mar','\'(24.6-30.2]\'',skilled,bad
0<=X<200,'existing paid','used car','\'(2067.4-3884.8]\'','no known savings','male single','\'(35.8-41.4]\'',skilled,good
0<=X<200,'delayed previously',furniture/equipment,'\'(3884.8-5702.2]\'',<100,'male div/sep','\'(35.8-41.4]\'','high qualif/self emp/mgmt',bad
'no checking','critical/other existing credit',education,'\'(-inf-2067.4]\'',500<=X<1000,'male single','\'(47-52.6]\'',skilled,good
<0,'existing paid','new car','\'(-inf-2067.4]\'',<100,'male mar/wid','\'(24.6-30.2]\'','unskilled resident',good
'no checking','delayed previously',business,'\'(3884.8-5702.2]\'',<100,'male single','\'(24.6-30.2]\'',skilled,good
<0,'existing paid',retraining,'\'(-inf-2067.4]\'',<100,'male mar/wid','\'(-inf-24.6]\'',skilled,bad
'no checking','critical/other existing credit','new car','\'(-inf-2067.4]\'',<100,'male single','\'(35.8-41.4]\'','unskilled resident',good
<0,'critical/other existing credit','used car','\'(9337-11154.4]\'',<100,'male single','\'(35.8-41.4]\'','high qualif/self emp/mgmt',good
'no checking','critical/other existing credit',furniture/equipment,'\'(-inf-2067.4]\'',<100,'male single','\'(41.4-47]\'',skilled,good
0<=X<200,'critical/other existing credit','domestic appliance','\'(-inf-2067.4]\'',<100,'male single','\'(24.6-30.2]\'',skilled,good
<0,'existing paid',business,'\'(5702.2-7519.6]\'',<100,'male mar/wid','\'(-inf-24.6]\'','unskilled resident',good
'no checking','existing paid','used car','\'(-inf-2067.4]\'',>=1000,'male single','\'(52.6-58.2]\'',skilled,good
'no checking','critical/other existing credit',radio/tv,'\'(2067.4-3884.8]\'','no known savings','male single','\'(30.2-35.8]\'',skilled,good
'no checking','existing paid',radio/tv,'\'(2067.4-3884.8]\'','no known savings','female div/dep/mar','\'(41.4-47]\'','unskilled resident',good
<0,'no credits/ all paid',business,'\'(3884.8-5702.2]\'',<100,'male single','\'(47-52.6]\'',skilled,bad
>=200,'delayed previously',business,'\'(-inf-2067.4]\'',<100,'male single','\'(63.8-69.4]\'','high qualif/self emp/mgmt',bad
'no checking','critical/other existing credit',radio/tv,'\'(2067.4-3884.8]\'','no known savings','male single','\'(47-52.6]\'',skilled,good
0<=X<200,'critical/other existing credit',retraining,'\'(-inf-2067.4]\'','no known savings','female div/dep/mar','\'(35.8-41.4]\'','unskilled resident',good
<0,'no credits/ all paid',business,'\'(2067.4-3884.8]\'',<100,'male single','\'(30.2-35.8]\'',skilled,good
>=200,'existing paid',radio/tv,'\'(3884.8-5702.2]\'',<100,'male single','\'(-inf-24.6]\'',skilled,good
<0,'existing paid',furniture/equipment,'\'(2067.4-3884.8]\'',<100,'male div/sep','\'(-inf-24.6]\'','unskilled resident',good
'no checking','existing paid','new car','\'(-inf-2067.4]\'',<100,'female div/dep/mar','\'(63.8-69.4]\'',skilled,good
0<=X<200,'existing paid',radio/tv,'\'(-inf-2067.4]\'',<100,'male mar/wid','\'(24.6-30.2]\'','unskilled resident',good
<0,'existing paid',education,'\'(-inf-2067.4]\'','no known savings','female div/dep/mar','\'(-inf-24.6]\'',skilled,good
'no checking','existing paid',radio/tv,'\'(-inf-2067.4]\'',<100,'male single','\'(24.6-30.2]\'',skilled,good
'no checking','delayed previously',business,'\'(2067.4-3884.8]\'','no known savings','male single','\'(30.2-35.8]\'',skilled,good
'no checking','existing paid','used car','\'(3884.8-5702.2]\'',<100,'male single','\'(24.6-30.2]\'',skilled,good
'no checking','no credits/ all paid',repairs,'\'(2067.4-3884.8]\'',<100,'male single','\'(24.6-30.2]\'',skilled,good
0<=X<200,'existing paid',radio/tv,'\'(9337-11154.4]\'',>=1000,'male single','\'(24.6-30.2]\'',skilled,bad
<0,'existing paid',furniture/equipment,'\'(7519.6-9337]\'',<100,'male single','\'(52.6-58.2]\'','high qualif/self emp/mgmt',bad
'no checking','existing paid',radio/tv,'\'(-inf-2067.4]\'',<100,'male single','\'(-inf-24.6]\'',skilled,bad
<0,'existing paid',furniture/equipment,'\'(2067.4-3884.8]\'',<100,'male single','\'(-inf-24.6]\'',skilled,good
>=200,'existing paid',radio/tv,'\'(3884.8-5702.2]\'',<100,'male single','\'(24.6-30.2]\'',skilled,bad
'no checking','existing paid','new car','\'(2067.4-3884.8]\'',500<=X<1000,'male single','\'(47-52.6]\'','unskilled resident',good
'no checking','existing paid',radio/tv,'\'(2067.4-3884.8]\'',100<=X<500,'male single','\'(30.2-35.8]\'',skilled,good
0<=X<200,'existing paid',radio/tv,'\'(-inf-2067.4]\'',<100,'male mar/wid','\'(24.6-30.2]\'','unskilled resident',good
'no checking','critical/other existing credit',radio/tv,'\'(-inf-2067.4]\'',<100,'male single','\'(41.4-47]\'','unskilled resident',good
<0,'existing paid',radio/tv,'\'(-inf-2067.4]\'',<100,'male single','\'(24.6-30.2]\'','high qualif/self emp/mgmt',bad
0<=X<200,'existing paid','new car','\'(12971.8-14789.2]\'','no known savings','male single','\'(-inf-24.6]\'','unemp/unskilled non res',bad
0<=X<200,'existing paid',business,'\'(2067.4-3884.8]\'',100<=X<500,'male div/sep','\'(58.2-63.8]\'','unskilled resident',bad
'no checking','critical/other existing credit',radio/tv,'\'(-inf-2067.4]\'',<100,'female div/dep/mar','\'(30.2-35.8]\'',skilled,good
<0,'existing paid',radio/tv,'\'(2067.4-3884.8]\'',<100,'male single','\'(35.8-41.4]\'',skilled,good
<0,'existing paid','new car','\'(-inf-2067.4]\'','no known savings','female div/dep/mar','\'(24.6-30.2]\'',skilled,bad
'no checking','existing paid',radio/tv,'\'(-inf-2067.4]\'',<100,'male single','\'(47-52.6]\'',skilled,good
<0,'no credits/ all paid','used car','\'(3884.8-5702.2]\'',<100,'male single','\'(-inf-24.6]\'',skilled,bad
'no checking','critical/other existing credit',business,'\'(-inf-2067.4]\'',<100,'female div/dep/mar','\'(24.6-30.2]\'',skilled,good
'no checking','all paid',retraining,'\'(2067.4-3884.8]\'',500<=X<1000,'female div/dep/mar','\'(30.2-35.8]\'','unskilled resident',good
'no checking','existing paid',business,'\'(-inf-2067.4]\'',<100,'male single','\'(24.6-30.2]\'',skilled,good
'no checking','critical/other existing credit',radio/tv,'\'(-inf-2067.4]\'',<100,'male single','\'(47-52.6]\'',skilled,good
'no checking','no credits/ all paid','new car','\'(-inf-2067.4]\'',100<=X<500,'male single','\'(30.2-35.8]\'',skilled,good
>=200,'existing paid',furniture/equipment,'\'(-inf-2067.4]\'',<100,'male single','\'(24.6-30.2]\'',skilled,good
'no checking','existing paid',radio/tv,'\'(-inf-2067.4]\'',<100,'female div/dep/mar','\'(-inf-24.6]\'',skilled,bad
<0,'critical/other existing credit','new car','\'(-inf-2067.4]\'',>=1000,'female div/dep/mar','\'(35.8-41.4]\'','unskilled resident',good
>=200,'existing paid',furniture/equipment,'\'(2067.4-3884.8]\'',<100,'female div/dep/mar','\'(41.4-47]\'','unskilled resident',good
0<=X<200,'existing paid','new car','\'(2067.4-3884.8]\'',<100,'female div/dep/mar','\'(-inf-24.6]\'',skilled,bad
'no checking','delayed previously',furniture/equipment,'\'(3884.8-5702.2]\'',100<=X<500,'male single','\'(30.2-35.8]\'',skilled,good
0<=X<200,'existing paid',furniture/equipment,'\'(-inf-2067.4]\'','no known savings','male single','\'(-inf-24.6]\'',skilled,good
0<=X<200,'delayed previously',radio/tv,'\'(5702.2-7519.6]\'','no known savings','male single','\'(24.6-30.2]\'','unskilled resident',good
'no checking','critical/other existing credit',radio/tv,'\'(2067.4-3884.8]\'',<100,'male single','\'(30.2-35.8]\'','unskilled resident',good
<0,'all paid',radio/tv,'\'(2067.4-3884.8]\'',<100,'male div/sep','\'(24.6-30.2]\'',skilled,bad
'no checking','existing paid','used car','\'(2067.4-3884.8]\'',100<=X<500,'female div/dep/mar','\'(-inf-24.6]\'',skilled,good
'no checking','critical/other existing credit',radio/tv,'\'(-inf-2067.4]\'',100<=X<500,'female div/dep/mar','\'(52.6-58.2]\'','unskilled resident',good
<0,'existing paid',furniture/equipment,'\'(-inf-2067.4]\'',<100,'male single','\'(24.6-30.2]\'',skilled,good
<0,'existing paid',radio/tv,'\'(-inf-2067.4]\'',<100,'female div/dep/mar','\'(52.6-58.2]\'',skilled,good
<0,'critical/other existing credit','new car','\'(3884.8-5702.2]\'',<100,'male single','\'(35.8-41.4]\'','high qualif/self emp/mgmt',good
'no checking','critical/other existing credit',education,'\'(2067.4-3884.8]\'',<100,'female div/dep/mar','\'(52.6-58.2]\'','unskilled resident',good
'no checking','critical/other existing credit','new car','\'(-inf-2067.4]\'',<100,'male single','\'(30.2-35.8]\'','unskilled resident',good
0<=X<200,'existing paid',radio/tv,'\'(-inf-2067.4]\'',<100,'male single','\'(35.8-41.4]\'',skilled,bad
'no checking','critical/other existing credit',business,'\'(5702.2-7519.6]\'','no known savings','male single','\'(35.8-41.4]\'',skilled,good
'no checking','existing paid',radio/tv,'\'(-inf-2067.4]\'',<100,'female div/dep/mar','\'(35.8-41.4]\'',skilled,good
<0,'existing paid','new car','\'(7519.6-9337]\'',<100,'male div/sep','\'(41.4-47]\'','high qualif/self emp/mgmt',bad
'no checking','existing paid',radio/tv,'\'(-inf-2067.4]\'','no known savings','male single','\'(24.6-30.2]\'',skilled,good
'no checking','existing paid','new car','\'(2067.4-3884.8]\'','no known savings','male single','\'(30.2-35.8]\'',skilled,good
'no checking','critical/other existing credit',furniture/equipment,'\'(-inf-2067.4]\'',500<=X<1000,'female div/dep/mar','\'(35.8-41.4]\'',skilled,good
0<=X<200,'all paid','new car','\'(11154.4-12971.8]\'','no known savings','male single','\'(35.8-41.4]\'','high qualif/self emp/mgmt',good
0<=X<200,'existing paid',radio/tv,'\'(2067.4-3884.8]\'',<100,'male single','\'(24.6-30.2]\'',skilled,bad
<0,'existing paid',repairs,'\'(11154.4-12971.8]\'',<100,'male div/sep','\'(30.2-35.8]\'','unskilled resident',bad
'no checking','existing paid',radio/tv,'\'(2067.4-3884.8]\'',<100,'male single','\'(30.2-35.8]\'',skilled,good
'no checking','critical/other existing credit',radio/tv,'\'(2067.4-3884.8]\'',<100,'female div/dep/mar','\'(24.6-30.2]\'',skilled,good
<0,'existing paid',furniture/equipment,'\'(-inf-2067.4]\'','no known savings','male div/sep','\'(47-52.6]\'','unskilled resident',good
'no checking','existing paid',furniture/equipment,'\'(3884.8-5702.2]\'',<100,'female div/dep/mar','\'(30.2-35.8]\'',skilled,bad
'no checking','existing paid',radio/tv,'\'(-inf-2067.4]\'',100<=X<500,'male single','\'(24.6-30.2]\'','high qualif/self emp/mgmt',good
'no checking','critical/other existing credit','used car','\'(2067.4-3884.8]\'',>=1000,'male single','\'(-inf-24.6]\'',skilled,good
'no checking','existing paid',furniture/equipment,'\'(-inf-2067.4]\'',<100,'male single','\'(47-52.6]\'',skilled,good
>=200,'all paid',radio/tv,'\'(-inf-2067.4]\'','no known savings','male single','\'(47-52.6]\'','unskilled resident',good
'no checking','critical/other existing credit',furniture/equipment,'\'(-inf-2067.4]\'','no known savings','male single','\'(58.2-63.8]\'',skilled,good
0<=X<200,'critical/other existing credit','new car','\'(2067.4-3884.8]\'',100<=X<500,'male div/sep','\'(35.8-41.4]\'',skilled,good
<0,'existing paid','new car','\'(9337-11154.4]\'',<100,'female div/dep/mar','\'(30.2-35.8]\'','unskilled resident',good
<0,'existing paid','used car','\'(3884.8-5702.2]\'',<100,'male single','\'(24.6-30.2]\'',skilled,good
0<=X<200,'delayed previously',other,'\'(7519.6-9337]\'',100<=X<500,'male single','\'(30.2-35.8]\'','high qualif/self emp/mgmt',good
0<=X<200,'existing paid',radio/tv,'\'(-inf-2067.4]\'',<100,'female div/dep/mar','\'(47-52.6]\'',skilled,good
<0,'delayed previously',radio/tv,'\'(-inf-2067.4]\'',<100,'male mar/wid','\'(47-52.6]\'',skilled,bad
'no checking','existing paid',business,'\'(-inf-2067.4]\'',<100,'male mar/wid','\'(24.6-30.2]\'',skilled,good
0<=X<200,'existing paid','used car','\'(9337-11154.4]\'',<100,'male mar/wid','\'(24.6-30.2]\'','high qualif/self emp/mgmt',bad
<0,'critical/other existing credit','used car','\'(5702.2-7519.6]\'',<100,'female div/dep/mar','\'(41.4-47]\'','high qualif/self emp/mgmt',good
>=200,'critical/other existing credit','used car','\'(3884.8-5702.2]\'',<100,'male single','\'(52.6-58.2]\'',skilled,good
'no checking','critical/other existing credit',business,'\'(7519.6-9337]\'','no known savings','male div/sep','\'(41.4-47]\'','high qualif/self emp/mgmt',good
0<=X<200,'existing paid',furniture/equipment,'\'(9337-11154.4]\'',<100,'female div/dep/mar','\'(24.6-30.2]\'',skilled,bad
'no checking','existing paid','used car','\'(3884.8-5702.2]\'','no known savings','female div/dep/mar','\'(-inf-24.6]\'',skilled,good
'no checking','existing paid','new car','\'(-inf-2067.4]\'','no known savings','male single','\'(41.4-47]\'','unskilled resident',good
'no checking','existing paid',furniture/equipment,'\'(2067.4-3884.8]\'',<100,'male single','\'(41.4-47]\'',skilled,good
0<=X<200,'critical/other existing credit',furniture/equipment,'\'(2067.4-3884.8]\'',>=1000,'male single','\'(30.2-35.8]\'',skilled,good
'no checking','existing paid','new car','\'(-inf-2067.4]\'',<100,'female div/dep/mar','\'(52.6-58.2]\'','unemp/unskilled non res',good
0<=X<200,'no credits/ all paid',radio/tv,'\'(2067.4-3884.8]\'',<100,'female div/dep/mar','\'(41.4-47]\'',skilled,bad
>=200,'critical/other existing credit','new car','\'(-inf-2067.4]\'','no known savings','male single','\'(35.8-41.4]\'','unskilled resident',bad
<0,'critical/other existing credit','new car','\'(-inf-2067.4]\'',<100,'male single','\'(47-52.6]\'',skilled,good
'no checking','critical/other existing credit','new car','\'(9337-11154.4]\'',500<=X<1000,'male single','\'(41.4-47]\'',skilled,bad
'no checking','existing paid',furniture/equipment,'\'(-inf-2067.4]\'',>=1000,'male div/sep','\'(30.2-35.8]\'',skilled,good
'no checking','existing paid','used car','\'(3884.8-5702.2]\'','no known savings','female div/dep/mar','\'(-inf-24.6]\'','unskilled resident',good
<0,'existing paid',radio/tv,'\'(-inf-2067.4]\'',100<=X<500,'male mar/wid','\'(30.2-35.8]\'','unskilled resident',bad
0<=X<200,'existing paid',furniture/equipment,'\'(-inf-2067.4]\'',<100,'female div/dep/mar','\'(-inf-24.6]\'',skilled,bad
0<=X<200,'existing paid','new car','\'(-inf-2067.4]\'',<100,'male mar/wid','\'(-inf-24.6]\'','unskilled resident',good
0<=X<200,'existing paid',other,'\'(3884.8-5702.2]\'','no known savings','male single','\'(35.8-41.4]\'','unemp/unskilled non res',good
'no checking','existing paid',furniture/equipment,'\'(3884.8-5702.2]\'',100<=X<500,'male single','\'(24.6-30.2]\'',skilled,good
>=200,'existing paid',furniture/equipment,'\'(2067.4-3884.8]\'',<100,'female div/dep/mar','\'(24.6-30.2]\'',skilled,good
0<=X<200,'existing paid','new car','\'(-inf-2067.4]\'',<100,'male mar/wid','\'(24.6-30.2]\'','unskilled resident',bad
>=200,'existing paid','new car','\'(-inf-2067.4]\'','no known savings','male single','\'(24.6-30.2]\'','unskilled resident',good
<0,'all paid',furniture/equipment,'\'(2067.4-3884.8]\'',<100,'male single','\'(30.2-35.8]\'',skilled,bad
<0,'existing paid',furniture/equipment,'\'(-inf-2067.4]\'',<100,'male single','\'(35.8-41.4]\'','unskilled resident',good
0<=X<200,'existing paid',furniture/equipment,'\'(3884.8-5702.2]\'','no known savings','female div/dep/mar','\'(47-52.6]\'','unskilled resident',good
'no checking','critical/other existing credit',education,'\'(-inf-2067.4]\'',<100,'male single','\'(30.2-35.8]\'',skilled,good
<0,'delayed previously',furniture/equipment,'\'(2067.4-3884.8]\'',<100,'female div/dep/mar','\'(24.6-30.2]\'','unskilled resident',good
0<=X<200,'critical/other existing credit','new car','\'(3884.8-5702.2]\'',<100,'male mar/wid','\'(24.6-30.2]\'','high qualif/self emp/mgmt',bad
<0,'existing paid',radio/tv,'\'(-inf-2067.4]\'',<100,'male div/sep','\'(30.2-35.8]\'',skilled,bad
<0,'existing paid','used car','\'(2067.4-3884.8]\'',<100,'male single','\'(30.2-35.8]\'','high qualif/self emp/mgmt',good
<0,'existing paid',furniture/equipment,'\'(2067.4-3884.8]\'',>=1000,'male single','\'(24.6-30.2]\'',skilled,good
'no checking','critical/other existing credit','new car','\'(-inf-2067.4]\'',<100,'female div/dep/mar','\'(35.8-41.4]\'',skilled,good
<0,'critical/other existing credit','new car','\'(2067.4-3884.8]\'',<100,'male single','\'(35.8-41.4]\'','unskilled resident',good
'no checking','critical/other existing credit',furniture/equipment,'\'(5702.2-7519.6]\'','no known savings','male single','\'(47-52.6]\'',skilled,good
'no checking','existing paid','new car','\'(-inf-2067.4]\'',>=1000,'female div/dep/mar','\'(30.2-35.8]\'',skilled,good
>=200,'existing paid',radio/tv,'\'(3884.8-5702.2]\'',<100,'male single','\'(30.2-35.8]\'',skilled,good
0<=X<200,'existing paid',radio/tv,'\'(-inf-2067.4]\'',<100,'male single','\'(24.6-30.2]\'',skilled,good
<0,'critical/other existing credit','used car','\'(5702.2-7519.6]\'',<100,'male single','\'(69.4-inf)\'','high qualif/self emp/mgmt',good
'no checking','critical/other existing credit',education,'\'(-inf-2067.4]\'',100<=X<500,'female div/dep/mar','\'(24.6-30.2]\'',skilled,bad
0<=X<200,'existing paid','new car','\'(5702.2-7519.6]\'',100<=X<500,'female div/dep/mar','\'(-inf-24.6]\'','high qualif/self emp/mgmt',bad
'no checking','critical/other existing credit','used car','\'(11154.4-12971.8]\'',100<=X<500,'female div/dep/mar','\'(-inf-24.6]\'','unskilled resident',bad
<0,'no credits/ all paid',furniture/equipment,'\'(3884.8-5702.2]\'',<100,'male single','\'(-inf-24.6]\'',skilled,bad
<0,'critical/other existing credit',furniture/equipment,'\'(2067.4-3884.8]\'',<100,'male div/sep','\'(41.4-47]\'','high qualif/self emp/mgmt',bad
0<=X<200,'existing paid',radio/tv,'\'(2067.4-3884.8]\'',<100,'female div/dep/mar','\'(-inf-24.6]\'','unskilled resident',good
<0,'existing paid','domestic appliance','\'(-inf-2067.4]\'','no known savings','female div/dep/mar','\'(-inf-24.6]\'',skilled,bad
<0,'existing paid',furniture/equipment,'\'(3884.8-5702.2]\'',<100,'male single','\'(24.6-30.2]\'',skilled,good
0<=X<200,'existing paid',furniture/equipment,'\'(-inf-2067.4]\'',<100,'male div/sep','\'(30.2-35.8]\'','unskilled resident',good
0<=X<200,'critical/other existing credit',education,'\'(5702.2-7519.6]\'',<100,'female div/dep/mar','\'(-inf-24.6]\'',skilled,good
<0,'existing paid',furniture/equipment,'\'(2067.4-3884.8]\'',<100,'female div/dep/mar','\'(24.6-30.2]\'','unskilled resident',good
0<=X<200,'existing paid',radio/tv,'\'(2067.4-3884.8]\'',500<=X<1000,'male mar/wid','\'(24.6-30.2]\'',skilled,good
0<=X<200,'existing paid',business,'\'(3884.8-5702.2]\'',<100,'male single','\'(30.2-35.8]\'','high qualif/self emp/mgmt',good
>=200,'existing paid','new car','\'(3884.8-5702.2]\'',<100,'male single','\'(35.8-41.4]\'','unskilled resident',good
'no checking','critical/other existing credit',radio/tv,'\'(-inf-2067.4]\'',<100,'female div/dep/mar','\'(41.4-47]\'','unskilled resident',good
0<=X<200,'critical/other existing credit',radio/tv,'\'(-inf-2067.4]\'',<100,'male single','\'(-inf-24.6]\'',skilled,good
0<=X<200,'existing paid',radio/tv,'\'(2067.4-3884.8]\'',500<=X<1000,'female div/dep/mar','\'(-inf-24.6]\'','unemp/unskilled non res',good
'no checking','delayed previously',business,'\'(-inf-2067.4]\'',100<=X<500,'male single','\'(30.2-35.8]\'','unskilled resident',good
0<=X<200,'critical/other existing credit',education,'\'(-inf-2067.4]\'',>=1000,'male single','\'(30.2-35.8]\'',skilled,bad
'no checking','existing paid','domestic appliance','\'(-inf-2067.4]\'',<100,'female div/dep/mar','\'(-inf-24.6]\'',skilled,good
0<=X<200,'existing paid',furniture/equipment,'\'(-inf-2067.4]\'',<100,'female div/dep/mar','\'(24.6-30.2]\'',skilled,bad
'no checking','critical/other existing credit','used car','\'(2067.4-3884.8]\'','no known savings','male single','\'(35.8-41.4]\'','high qualif/self emp/mgmt',good
<0,'no credits/ all paid',radio/tv,'\'(5702.2-7519.6]\'',<100,'male single','\'(24.6-30.2]\'',skilled,bad
'no checking','existing paid',education,'\'(-inf-2067.4]\'',500<=X<1000,'male single','\'(41.4-47]\'',skilled,good
0<=X<200,'existing paid','new car','\'(-inf-2067.4]\'',<100,'male single','\'(-inf-24.6]\'','unskilled resident',bad
'no checking','critical/other existing credit',radio/tv,'\'(2067.4-3884.8]\'','no known savings','male single','\'(47-52.6]\'',skilled,good
'no checking','delayed previously',radio/tv,'\'(3884.8-5702.2]\'',<100,'male single','\'(24.6-30.2]\'','high qualif/self emp/mgmt',bad
'no checking','existing paid',radio/tv,'\'(-inf-2067.4]\'',<100,'male mar/wid','\'(24.6-30.2]\'',skilled,good
<0,'existing paid',furniture/equipment,'\'(2067.4-3884.8]\'',<100,'female div/dep/mar','\'(-inf-24.6]\'',skilled,bad
0<=X<200,'existing paid',education,'\'(-inf-2067.4]\'','no known savings','male single','\'(58.2-63.8]\'',skilled,good
>=200,'existing paid',radio/tv,'\'(2067.4-3884.8]\'','no known savings','male single','\'(35.8-41.4]\'','high qualif/self emp/mgmt',good
>=200,'delayed previously','new car','\'(2067.4-3884.8]\'',<100,'female div/dep/mar','\'(35.8-41.4]\'',skilled,good
'no checking','existing paid',furniture/equipment,'\'(-inf-2067.4]\'',<100,'male mar/wid','\'(-inf-24.6]\'',skilled,good
<0,'existing paid',furniture/equipment,'\'(2067.4-3884.8]\'',<100,'male single','\'(24.6-30.2]\'','unemp/unskilled non res',bad
'no checking','existing paid',business,'\'(-inf-2067.4]\'',<100,'male single','\'(35.8-41.4]\'',skilled,good
'no checking','critical/other existing credit','used car','\'(2067.4-3884.8]\'',<100,'male single','\'(24.6-30.2]\'',skilled,good
<0,'existing paid',furniture/equipment,'\'(2067.4-3884.8]\'',<100,'female div/dep/mar','\'(-inf-24.6]\'',skilled,good
<0,'existing paid',furniture/equipment,'\'(2067.4-3884.8]\'',<100,'male single','\'(41.4-47]\'',skilled,bad
0<=X<200,'existing paid',furniture/equipment,'\'(2067.4-3884.8]\'',<100,'female div/dep/mar','\'(35.8-41.4]\'',skilled,good
'no checking','existing paid','new car','\'(2067.4-3884.8]\'','no known savings','male single','\'(35.8-41.4]\'',skilled,good
'no checking','critical/other existing credit',radio/tv,'\'(5702.2-7519.6]\'',<100,'male single','\'(30.2-35.8]\'',skilled,good
'no checking','critical/other existing credit',furniture/equipment,'\'(2067.4-3884.8]\'',<100,'female div/dep/mar','\'(-inf-24.6]\'',skilled,good
'no checking','critical/other existing credit','new car','\'(12971.8-14789.2]\'','no known savings','male single','\'(58.2-63.8]\'','high qualif/self emp/mgmt',good
0<=X<200,'all paid',other,'\'(12971.8-14789.2]\'',100<=X<500,'female div/dep/mar','\'(58.2-63.8]\'','high qualif/self emp/mgmt',bad
<0,'all paid',business,'\'(7519.6-9337]\'',<100,'female div/dep/mar','\'(35.8-41.4]\'',skilled,bad
'no checking','delayed previously',radio/tv,'\'(2067.4-3884.8]\'',<100,'male mar/wid','\'(30.2-35.8]\'',skilled,good
'no checking','delayed previously',radio/tv,'\'(-inf-2067.4]\'','no known savings','male single','\'(35.8-41.4]\'',skilled,good
0<=X<200,'existing paid','new car','\'(12971.8-14789.2]\'',<100,'male single','\'(52.6-58.2]\'','high qualif/self emp/mgmt',bad
'no checking','critical/other existing credit','new car','\'(-inf-2067.4]\'',100<=X<500,'female div/dep/mar','\'(47-52.6]\'','unskilled resident',good
<0,'existing paid',furniture/equipment,'\'(2067.4-3884.8]\'','no known savings','male single','\'(35.8-41.4]\'',skilled,good
0<=X<200,'existing paid','used car','\'(12971.8-14789.2]\'',<100,'female div/dep/mar','\'(35.8-41.4]\'','high qualif/self emp/mgmt',bad
'no checking','existing paid','new car','\'(-inf-2067.4]\'','no known savings','female div/dep/mar','\'(24.6-30.2]\'',skilled,good
>=200,'existing paid','new car','\'(-inf-2067.4]\'',<100,'male single','\'(24.6-30.2]\'',skilled,good
'no checking','delayed previously',business,'\'(3884.8-5702.2]\'',100<=X<500,'male single','\'(24.6-30.2]\'','unskilled resident',good
'no checking','critical/other existing credit',radio/tv,'\'(2067.4-3884.8]\'',<100,'female div/dep/mar','\'(24.6-30.2]\'',skilled,good
'no checking','existing paid',radio/tv,'\'(-inf-2067.4]\'','no known savings','female div/dep/mar','\'(-inf-24.6]\'',skilled,good
0<=X<200,'critical/other existing credit',furniture/equipment,'\'(5702.2-7519.6]\'',<100,'male single','\'(35.8-41.4]\'','high qualif/self emp/mgmt',good
0<=X<200,'critical/other existing credit',business,'\'(2067.4-3884.8]\'',500<=X<1000,'male single','\'(24.6-30.2]\'',skilled,good
'no checking','existing paid',business,'\'(-inf-2067.4]\'',<100,'female div/dep/mar','\'(24.6-30.2]\'',skilled,good
'no checking','existing paid','new car','\'(-inf-2067.4]\'',<100,'male mar/wid','\'(24.6-30.2]\'','high qualif/self emp/mgmt',good
0<=X<200,'existing paid',furniture/equipment,'\'(-inf-2067.4]\'',>=1000,'female div/dep/mar','\'(-inf-24.6]\'','unskilled resident',good
<0,'existing paid','new car','\'(2067.4-3884.8]\'',<100,'male single','\'(35.8-41.4]\'','high qualif/self emp/mgmt',good
<0,'critical/other existing credit',radio/tv,'\'(-inf-2067.4]\'',<100,'female div/dep/mar','\'(30.2-35.8]\'',skilled,good
'no checking','critical/other existing credit',furniture/equipment,'\'(2067.4-3884.8]\'',<100,'male single','\'(30.2-35.8]\'','high qualif/self emp/mgmt',good
0<=X<200,'delayed previously',education,'\'(11154.4-12971.8]\'',100<=X<500,'male single','\'(30.2-35.8]\'',skilled,good
<0,'existing paid',furniture/equipment,'\'(2067.4-3884.8]\'',<100,'female div/dep/mar','\'(52.6-58.2]\'','high qualif/self emp/mgmt',good
<0,'critical/other existing credit',furniture/equipment,'\'(2067.4-3884.8]\'',<100,'male mar/wid','\'(41.4-47]\'',skilled,good
0<=X<200,'existing paid','new car','\'(-inf-2067.4]\'',<100,'male div/sep','\'(41.4-47]\'',skilled,bad
'no checking','critical/other existing credit',radio/tv,'\'(-inf-2067.4]\'',>=1000,'female div/dep/mar','\'(41.4-47]\'','unskilled resident',good
'no checking','existing paid',radio/tv,'\'(-inf-2067.4]\'',<100,'male mar/wid','\'(35.8-41.4]\'',skilled,good
0<=X<200,'critical/other existing credit',business,'\'(-inf-2067.4]\'','no known savings','male mar/wid','\'(24.6-30.2]\'',skilled,good
'no checking','delayed previously',business,'\'(7519.6-9337]\'',<100,'male single','\'(24.6-30.2]\'',skilled,bad
'no checking','delayed previously','new car','\'(-inf-2067.4]\'',<100,'male single','\'(24.6-30.2]\'','unskilled resident',good
0<=X<200,'delayed previously','new car','\'(2067.4-3884.8]\'','no known savings','male single','\'(41.4-47]\'',skilled,good
0<=X<200,'existing paid',radio/tv,'\'(-inf-2067.4]\'',<100,'male mar/wid','\'(-inf-24.6]\'',skilled,bad
'no checking','critical/other existing credit','used car','\'(2067.4-3884.8]\'','no known savings','male single','\'(41.4-47]\'',skilled,good
<0,'existing paid',radio/tv,'\'(-inf-2067.4]\'',<100,'male mar/wid','\'(24.6-30.2]\'',skilled,good
'no checking','existing paid',radio/tv,'\'(2067.4-3884.8]\'',500<=X<1000,'male div/sep','\'(24.6-30.2]\'','high qualif/self emp/mgmt',good
>=200,'critical/other existing credit','new car','\'(-inf-2067.4]\'',500<=X<1000,'male mar/wid','\'(24.6-30.2]\'',skilled,bad
0<=X<200,'existing paid',radio/tv,'\'(-inf-2067.4]\'',<100,'female div/dep/mar','\'(-inf-24.6]\'',skilled,good
'no checking','critical/other existing credit','used car','\'(5702.2-7519.6]\'',<100,'male single','\'(30.2-35.8]\'','high qualif/self emp/mgmt',good
'no checking','critical/other existing credit',business,'\'(2067.4-3884.8]\'',<100,'male single','\'(41.4-47]\'','high qualif/self emp/mgmt',bad
'no checking','existing paid','new car','\'(-inf-2067.4]\'',500<=X<1000,'male single','\'(35.8-41.4]\'','unskilled resident',good
<0,'existing paid','new car','\'(-inf-2067.4]\'','no known savings','female div/dep/mar','\'(30.2-35.8]\'',skilled,bad
'no checking','critical/other existing credit','used car','\'(5702.2-7519.6]\'',<100,'male single','\'(30.2-35.8]\'',skilled,good
<0,'existing paid','new car','\'(2067.4-3884.8]\'',<100,'male single','\'(30.2-35.8]\'','unskilled resident',bad
<0,'delayed previously',education,'\'(7519.6-9337]\'','no known savings','female div/dep/mar','\'(-inf-24.6]\'',skilled,good
'no checking','existing paid','new car','\'(2067.4-3884.8]\'',500<=X<1000,'female div/dep/mar','\'(30.2-35.8]\'','high qualif/self emp/mgmt',good
0<=X<200,'existing paid','new car','\'(-inf-2067.4]\'','no known savings','female div/dep/mar','\'(30.2-35.8]\'',skilled,bad
'no checking','existing paid','new car','\'(2067.4-3884.8]\'',>=1000,'female div/dep/mar','\'(-inf-24.6]\'',skilled,good
0<=X<200,'existing paid','used car','\'(-inf-2067.4]\'','no known savings','male single','\'(24.6-30.2]\'',skilled,good
0<=X<200,'critical/other existing credit','new car','\'(-inf-2067.4]\'',<100,'male single','\'(41.4-47]\'','unskilled resident',good
'no checking','delayed previously',furniture/equipment,'\'(-inf-2067.4]\'',100<=X<500,'male single','\'(30.2-35.8]\'','high qualif/self emp/mgmt',good
0<=X<200,'existing paid',furniture/equipment,'\'(2067.4-3884.8]\'','no known savings','female div/dep/mar','\'(24.6-30.2]\'',skilled,bad
0<=X<200,'existing paid','used car','\'(2067.4-3884.8]\'',<100,'male mar/wid','\'(-inf-24.6]\'',skilled,good
'no checking','critical/other existing credit',radio/tv,'\'(2067.4-3884.8]\'',<100,'male single','\'(24.6-30.2]\'',skilled,good
'no checking','critical/other existing credit',radio/tv,'\'(-inf-2067.4]\'',>=1000,'male single','\'(41.4-47]\'',skilled,good
'no checking','existing paid',furniture/equipment,'\'(-inf-2067.4]\'',<100,'male single','\'(-inf-24.6]\'',skilled,good
<0,'critical/other existing credit',repairs,'\'(-inf-2067.4]\'',<100,'female div/dep/mar','\'(52.6-58.2]\'','unemp/unskilled non res',bad
'no checking','existing paid',business,'\'(2067.4-3884.8]\'',<100,'male single','\'(69.4-inf)\'','unskilled resident',good
0<=X<200,'existing paid',other,'\'(11154.4-12971.8]\'',<100,'male single','\'(24.6-30.2]\'','high qualif/self emp/mgmt',bad
<0,'critical/other existing credit',furniture/equipment,'\'(-inf-2067.4]\'',<100,'male single','\'(35.8-41.4]\'','high qualif/self emp/mgmt',good
'no checking','critical/other existing credit',repairs,'\'(-inf-2067.4]\'',<100,'male div/sep','\'(30.2-35.8]\'',skilled,good
<0,'existing paid',furniture/equipment,'\'(2067.4-3884.8]\'',<100,'male single','\'(24.6-30.2]\'',skilled,good
0<=X<200,'existing paid',radio/tv,'\'(-inf-2067.4]\'','no known savings','male mar/wid','\'(24.6-30.2]\'',skilled,bad
'no checking','existing paid',repairs,'\'(-inf-2067.4]\'',500<=X<1000,'male mar/wid','\'(-inf-24.6]\'','unskilled resident',good
'no checking','critical/other existing credit','new car','\'(-inf-2067.4]\'',>=1000,'female div/dep/mar','\'(35.8-41.4]\'',skilled,good
<0,'critical/other existing credit',repairs,'\'(2067.4-3884.8]\'',<100,'male single','\'(63.8-69.4]\'','unemp/unskilled non res',good
>=200,'all paid',business,'\'(-inf-2067.4]\'',<100,'female div/dep/mar','\'(24.6-30.2]\'','unemp/unskilled non res',bad
'no checking','existing paid','new car','\'(-inf-2067.4]\'',<100,'male single','\'(35.8-41.4]\'','high qualif/self emp/mgmt',good
<0,'existing paid',furniture/equipment,'\'(-inf-2067.4]\'',<100,'female div/dep/mar','\'(24.6-30.2]\'',skilled,good
0<=X<200,'delayed previously',other,'\'(2067.4-3884.8]\'',<100,'male single','\'(24.6-30.2]\'',skilled,good
'no checking','existing paid',education,'\'(-inf-2067.4]\'',<100,'male single','\'(35.8-41.4]\'','unskilled resident',bad
0<=X<200,'critical/other existing credit',furniture/equipment,'\'(3884.8-5702.2]\'',<100,'female div/dep/mar','\'(24.6-30.2]\'','high qualif/self emp/mgmt',bad
'no checking','critical/other existing credit',education,'\'(-inf-2067.4]\'','no known savings','female div/dep/mar','\'(35.8-41.4]\'','unskilled resident',good
<0,'existing paid','new car','\'(-inf-2067.4]\'',<100,'female div/dep/mar','\'(30.2-35.8]\'',skilled,bad
0<=X<200,'existing paid',radio/tv,'\'(2067.4-3884.8]\'',<100,'male single','\'(30.2-35.8]\'',skilled,good
>=200,'existing paid',furniture/equipment,'\'(-inf-2067.4]\'','no known savings','female div/dep/mar','\'(52.6-58.2]\'','high qualif/self emp/mgmt',good
0<=X<200,'delayed previously',repairs,'\'(-inf-2067.4]\'',>=1000,'male mar/wid','\'(58.2-63.8]\'',skilled,bad
'no checking','critical/other existing credit','used car','\'(9337-11154.4]\'','no known savings','male single','\'(24.6-30.2]\'','high qualif/self emp/mgmt',good
'no checking','existing paid',radio/tv,'\'(-inf-2067.4]\'',<100,'female div/dep/mar','\'(24.6-30.2]\'',skilled,good
'no checking','no credits/ all paid',furniture/equipment,'\'(2067.4-3884.8]\'',<100,'male single','\'(30.2-35.8]\'',skilled,good
'no checking','existing paid','used car','\'(2067.4-3884.8]\'',<100,'male single','\'(30.2-35.8]\'','high qualif/self emp/mgmt',good
<0,'existing paid','new car','\'(3884.8-5702.2]\'',<100,'male single','\'(30.2-35.8]\'',skilled,bad
'no checking','existing paid','used car','\'(2067.4-3884.8]\'',<100,'female div/dep/mar','\'(24.6-30.2]\'','high qualif/self emp/mgmt',good
<0,'critical/other existing credit','new car','\'(3884.8-5702.2]\'',<100,'male single','\'(35.8-41.4]\'',skilled,good
<0,'existing paid','used car','\'(2067.4-3884.8]\'',<100,'male single','\'(30.2-35.8]\'',skilled,bad
<0,'existing paid','domestic appliance','\'(-inf-2067.4]\'',<100,'female div/dep/mar','\'(24.6-30.2]\'',skilled,good
'no checking','existing paid',radio/tv,'\'(3884.8-5702.2]\'',<100,'male single','\'(30.2-35.8]\'',skilled,good
<0,'existing paid',furniture/equipment,'\'(2067.4-3884.8]\'',<100,'male single','\'(35.8-41.4]\'',skilled,good
<0,'existing paid','new car','\'(-inf-2067.4]\'',<100,'male single','\'(35.8-41.4]\'',skilled,good
0<=X<200,'existing paid',furniture/equipment,'\'(2067.4-3884.8]\'',<100,'female div/dep/mar','\'(30.2-35.8]\'','high qualif/self emp/mgmt',good
0<=X<200,'existing paid',retraining,'\'(-inf-2067.4]\'','no known savings','male single','\'(35.8-41.4]\'',skilled,good
'no checking','existing paid',business,'\'(-inf-2067.4]\'',<100,'male single','\'(30.2-35.8]\'',skilled,good
<0,'existing paid','used car','\'(2067.4-3884.8]\'',<100,'male single','\'(58.2-63.8]\'',skilled,good
<0,'delayed previously',radio/tv,'\'(-inf-2067.4]\'',<100,'female div/dep/mar','\'(24.6-30.2]\'','unskilled resident',bad
'no checking','delayed previously',radio/tv,'\'(5702.2-7519.6]\'','no known savings','male single','\'(30.2-35.8]\'',skilled,good
'no checking','delayed previously',business,'\'(2067.4-3884.8]\'',<100,'female div/dep/mar','\'(24.6-30.2]\'',skilled,good
'no checking','delayed previously','used car','\'(3884.8-5702.2]\'',<100,'male single','\'(30.2-35.8]\'','unskilled resident',good
0<=X<200,'existing paid',radio/tv,'\'(2067.4-3884.8]\'',100<=X<500,'male mar/wid','\'(-inf-24.6]\'',skilled,bad
<0,'existing paid',education,'\'(-inf-2067.4]\'',<100,'female div/dep/mar','\'(-inf-24.6]\'',skilled,bad
<0,'existing paid','new car','\'(-inf-2067.4]\'',<100,'male single','\'(24.6-30.2]\'','unskilled resident',bad
'no checking','existing paid',retraining,'\'(-inf-2067.4]\'','no known savings','male single','\'(35.8-41.4]\'','high qualif/self emp/mgmt',good
0<=X<200,'critical/other existing credit',radio/tv,'\'(-inf-2067.4]\'',<100,'male mar/wid','\'(30.2-35.8]\'',skilled,bad
<0,'no credits/ all paid',furniture/equipment,'\'(2067.4-3884.8]\'',<100,'female div/dep/mar','\'(24.6-30.2]\'',skilled,bad
'no checking','existing paid','used car','\'(2067.4-3884.8]\'',500<=X<1000,'male single','\'(-inf-24.6]\'',skilled,good
>=200,'existing paid',radio/tv,'\'(3884.8-5702.2]\'',<100,'male single','\'(24.6-30.2]\'',skilled,good
0<=X<200,'existing paid',business,'\'(-inf-2067.4]\'',100<=X<500,'male single','\'(35.8-41.4]\'','unskilled resident',good
<0,'critical/other existing credit',furniture/equipment,'\'(-inf-2067.4]\'',<100,'male single','\'(41.4-47]\'',skilled,good
0<=X<200,'critical/other existing credit',radio/tv,'\'(2067.4-3884.8]\'',<100,'female div/dep/mar','\'(-inf-24.6]\'','unskilled resident',good
0<=X<200,'existing paid','new car','\'(-inf-2067.4]\'',<100,'male single','\'(24.6-30.2]\'',skilled,good
<0,'existing paid',furniture/equipment,'\'(2067.4-3884.8]\'',>=1000,'female div/dep/mar','\'(52.6-58.2]\'',skilled,good
'no checking','delayed previously',furniture/equipment,'\'(-inf-2067.4]\'',>=1000,'female div/dep/mar','\'(24.6-30.2]\'',skilled,good
'no checking','critical/other existing credit','new car','\'(-inf-2067.4]\'',500<=X<1000,'male single','\'(41.4-47]\'',skilled,good
0<=X<200,'delayed previously','new car','\'(-inf-2067.4]\'',<100,'male single','\'(41.4-47]\'','high qualif/self emp/mgmt',bad
'no checking','existing paid',radio/tv,'\'(2067.4-3884.8]\'',<100,'male single','\'(47-52.6]\'',skilled,good
'no checking','existing paid','new car','\'(2067.4-3884.8]\'',<100,'female div/dep/mar','\'(58.2-63.8]\'',skilled,good
'no checking','existing paid','new car','\'(-inf-2067.4]\'',100<=X<500,'male single','\'(30.2-35.8]\'','unskilled resident',good
'no checking','existing paid','new car','\'(2067.4-3884.8]\'',<100,'male single','\'(24.6-30.2]\'',skilled,good
'no checking','critical/other existing credit',radio/tv,'\'(-inf-2067.4]\'',<100,'male single','\'(24.6-30.2]\'',skilled,good
0<=X<200,'no credits/ all paid',business,'\'(7519.6-9337]\'',<100,'female div/dep/mar','\'(41.4-47]\'','high qualif/self emp/mgmt',bad
'no checking','critical/other existing credit',radio/tv,'\'(-inf-2067.4]\'',100<=X<500,'female div/dep/mar','\'(24.6-30.2]\'',skilled,good
0<=X<200,'existing paid',radio/tv,'\'(-inf-2067.4]\'','no known savings','male single','\'(35.8-41.4]\'',skilled,good
<0,'critical/other existing credit','new car','\'(2067.4-3884.8]\'',<100,'male single','\'(35.8-41.4]\'','unskilled resident',good
<0,'existing paid',furniture/equipment,'\'(2067.4-3884.8]\'','no known savings','male mar/wid','\'(-inf-24.6]\'',skilled,bad
0<=X<200,'existing paid',furniture/equipment,'\'(7519.6-9337]\'',100<=X<500,'male single','\'(24.6-30.2]\'','high qualif/self emp/mgmt',bad
'no checking','critical/other existing credit',furniture/equipment,'\'(-inf-2067.4]\'',<100,'male single','\'(35.8-41.4]\'',skilled,good
0<=X<200,'existing paid',radio/tv,'\'(-inf-2067.4]\'',<100,'male mar/wid','\'(30.2-35.8]\'','unskilled resident',good
>=200,'critical/other existing credit','new car','\'(-inf-2067.4]\'',100<=X<500,'male div/sep','\'(24.6-30.2]\'',skilled,good
<0,'existing paid','new car','\'(2067.4-3884.8]\'',<100,'female div/dep/mar','\'(24.6-30.2]\'',skilled,bad
<0,'existing paid','used car','\'(3884.8-5702.2]\'',<100,'male single','\'(41.4-47]\'',skilled,good
>=200,'existing paid',radio/tv,'\'(-inf-2067.4]\'',100<=X<500,'male div/sep','\'(47-52.6]\'',skilled,good
0<=X<200,'critical/other existing credit',radio/tv,'\'(-inf-2067.4]\'',100<=X<500,'male single','\'(35.8-41.4]\'',skilled,bad
<0,'existing paid','new car','\'(-inf-2067.4]\'',<100,'female div/dep/mar','\'(-inf-24.6]\'',skilled,bad
'no checking','existing paid','new car','\'(-inf-2067.4]\'','no known savings','male single','\'(24.6-30.2]\'','unskilled resident',bad
>=200,'critical/other existing credit','used car','\'(2067.4-3884.8]\'',500<=X<1000,'male single','\'(35.8-41.4]\'',skilled,good
0<=X<200,'all paid','new car','\'(5702.2-7519.6]\'',100<=X<500,'male single','\'(30.2-35.8]\'','high qualif/self emp/mgmt',bad
'no checking','existing paid',radio/tv,'\'(-inf-2067.4]\'',<100,'male mar/wid','\'(24.6-30.2]\'',skilled,good
'no checking','existing paid','used car','\'(7519.6-9337]\'',100<=X<500,'male single','\'(41.4-47]\'','high qualif/self emp/mgmt',good
<0,'existing paid','new car','\'(-inf-2067.4]\'',<100,'male single','\'(24.6-30.2]\'',skilled,bad
'no checking','existing paid','used car','\'(3884.8-5702.2]\'',<100,'male single','\'(30.2-35.8]\'','high qualif/self emp/mgmt',good
>=200,'existing paid',business,'\'(2067.4-3884.8]\'',<100,'male single','\'(24.6-30.2]\'',skilled,good
0<=X<200,'delayed previously',radio/tv,'\'(-inf-2067.4]\'',<100,'male mar/wid','\'(-inf-24.6]\'',skilled,good
'no checking','existing paid','new car','\'(2067.4-3884.8]\'','no known savings','male single','\'(52.6-58.2]\'',skilled,good
<0,'critical/other existing credit','new car','\'(-inf-2067.4]\'',<100,'female div/dep/mar','\'(35.8-41.4]\'',skilled,good
<0,'critical/other existing credit','new car','\'(-inf-2067.4]\'',<100,'male single','\'(35.8-41.4]\'','unskilled resident',good
'no checking','critical/other existing credit',furniture/equipment,'\'(5702.2-7519.6]\'',<100,'female div/dep/mar','\'(-inf-24.6]\'',skilled,bad
<0,'existing paid','new car','\'(-inf-2067.4]\'',100<=X<500,'male single','\'(41.4-47]\'',skilled,good
'no checking','critical/other existing credit',radio/tv,'\'(-inf-2067.4]\'','no known savings','male single','\'(35.8-41.4]\'',skilled,good
'no checking','critical/other existing credit',repairs,'\'(3884.8-5702.2]\'',<100,'male single','\'(41.4-47]\'',skilled,good
<0,'existing paid',radio/tv,'\'(2067.4-3884.8]\'',<100,'female div/dep/mar','\'(-inf-24.6]\'',skilled,bad
<0,'no credits/ all paid',furniture/equipment,'\'(5702.2-7519.6]\'',<100,'male single','\'(52.6-58.2]\'',skilled,bad
'no checking','existing paid','used car','\'(2067.4-3884.8]\'',100<=X<500,'female div/dep/mar','\'(-inf-24.6]\'',skilled,good
0<=X<200,'existing paid',radio/tv,'\'(-inf-2067.4]\'',<100,'female div/dep/mar','\'(24.6-30.2]\'','unskilled resident',good
0<=X<200,'existing paid','used car','\'(7519.6-9337]\'',<100,'male single','\'(24.6-30.2]\'',skilled,good
'no checking','critical/other existing credit',education,'\'(-inf-2067.4]\'',100<=X<500,'female div/dep/mar','\'(30.2-35.8]\'',skilled,good
'no checking','critical/other existing credit',radio/tv,'\'(-inf-2067.4]\'',<100,'male single','\'(41.4-47]\'','unskilled resident',good
<0,'existing paid',radio/tv,'\'(2067.4-3884.8]\'',<100,'male div/sep','\'(30.2-35.8]\'',skilled,bad
<0,'existing paid','new car','\'(-inf-2067.4]\'',<100,'male single','\'(35.8-41.4]\'','unskilled resident',good
0<=X<200,'existing paid',education,'\'(2067.4-3884.8]\'',<100,'male single','\'(30.2-35.8]\'',skilled,good
0<=X<200,'existing paid','new car','\'(2067.4-3884.8]\'',100<=X<500,'female div/dep/mar','\'(24.6-30.2]\'',skilled,bad
'no checking','delayed previously','used car','\'(-inf-2067.4]\'',<100,'male mar/wid','\'(35.8-41.4]\'',skilled,good
'no checking','existing paid',radio/tv,'\'(-inf-2067.4]\'',100<=X<500,'male mar/wid','\'(24.6-30.2]\'',skilled,good
'no checking','existing paid',radio/tv,'\'(2067.4-3884.8]\'','no known savings','male single','\'(24.6-30.2]\'',skilled,good
>=200,'critical/other existing credit',education,'\'(2067.4-3884.8]\'',<100,'male div/sep','\'(30.2-35.8]\'',skilled,bad
<0,'existing paid','new car','\'(-inf-2067.4]\'','no known savings','female div/dep/mar','\'(69.4-inf)\'','high qualif/self emp/mgmt',good
0<=X<200,'critical/other existing credit',furniture/equipment,'\'(2067.4-3884.8]\'',<100,'female div/dep/mar','\'(35.8-41.4]\'',skilled,good
<0,'existing paid','new car','\'(7519.6-9337]\'',<100,'male single','\'(41.4-47]\'','high qualif/self emp/mgmt',bad
>=200,'existing paid',furniture/equipment,'\'(2067.4-3884.8]\'',<100,'female div/dep/mar','\'(41.4-47]\'','unskilled resident',good
0<=X<200,'existing paid',radio/tv,'\'(-inf-2067.4]\'',<100,'male mar/wid','\'(-inf-24.6]\'',skilled,bad
'no checking','delayed previously','new car','\'(-inf-2067.4]\'',<100,'male single','\'(58.2-63.8]\'',skilled,good
<0,'existing paid',furniture/equipment,'\'(5702.2-7519.6]\'','no known savings','male single','\'(30.2-35.8]\'',skilled,bad
>=200,'existing paid',furniture/equipment,'\'(2067.4-3884.8]\'',<100,'male single','\'(30.2-35.8]\'','unskilled resident',bad
'no checking','critical/other existing credit','new car','\'(-inf-2067.4]\'',<100,'male single','\'(58.2-63.8]\'','unskilled resident',good
<0,'delayed previously','new car','\'(-inf-2067.4]\'',<100,'male single','\'(41.4-47]\'',skilled,bad
'no checking','critical/other existing credit','new car','\'(-inf-2067.4]\'',<100,'female div/dep/mar','\'(35.8-41.4]\'',skilled,good
'no checking','existing paid',radio/tv,'\'(-inf-2067.4]\'',<100,'male single','\'(30.2-35.8]\'',skilled,good
<0,'all paid',radio/tv,'\'(-inf-2067.4]\'',<100,'female div/dep/mar','\'(-inf-24.6]\'','unskilled resident',bad
'no checking','critical/other existing credit','used car','\'(7519.6-9337]\'','no known savings','male single','\'(30.2-35.8]\'',skilled,good
'no checking','critical/other existing credit',repairs,'\'(-inf-2067.4]\'','no known savings','female div/dep/mar','\'(-inf-24.6]\'',skilled,good
'no checking','all paid',radio/tv,'\'(-inf-2067.4]\'',500<=X<1000,'male single','\'(41.4-47]\'','unskilled resident',good
<0,'existing paid',radio/tv,'\'(5702.2-7519.6]\'',<100,'male mar/wid','\'(30.2-35.8]\'',skilled,bad
0<=X<200,'critical/other existing credit','new car','\'(-inf-2067.4]\'',100<=X<500,'male single','\'(24.6-30.2]\'',skilled,good
0<=X<200,'existing paid',education,'\'(-inf-2067.4]\'',<100,'female div/dep/mar','\'(63.8-69.4]\'','high qualif/self emp/mgmt',good
0<=X<200,'existing paid',radio/tv,'\'(-inf-2067.4]\'',<100,'male single','\'(-inf-24.6]\'',skilled,bad
0<=X<200,'no credits/ all paid','new car','\'(2067.4-3884.8]\'',100<=X<500,'female div/dep/mar','\'(24.6-30.2]\'',skilled,bad
'no checking','no credits/ all paid','new car','\'(3884.8-5702.2]\'','no known savings','female div/dep/mar','\'(24.6-30.2]\'',skilled,bad
<0,'all paid',furniture/equipment,'\'(2067.4-3884.8]\'',<100,'male single','\'(24.6-30.2]\'',skilled,bad
0<=X<200,'critical/other existing credit',furniture/equipment,'\'(-inf-2067.4]\'',<100,'male single','\'(30.2-35.8]\'','unskilled resident',bad
<0,'existing paid','used car','\'(2067.4-3884.8]\'','no known savings','male single','\'(47-52.6]\'',skilled,good
<0,'all paid',radio/tv,'\'(-inf-2067.4]\'',<100,'male single','\'(-inf-24.6]\'','unskilled resident',bad
>=200,'delayed previously',radio/tv,'\'(-inf-2067.4]\'',<100,'female div/dep/mar','\'(24.6-30.2]\'',skilled,good
0<=X<200,'existing paid','new car','\'(11154.4-12971.8]\'','no known savings','male single','\'(35.8-41.4]\'',skilled,bad
0<=X<200,'delayed previously',business,'\'(3884.8-5702.2]\'','no known savings','male single','\'(35.8-41.4]\'','high qualif/self emp/mgmt',good
0<=X<200,'delayed previously',radio/tv,'\'(-inf-2067.4]\'',100<=X<500,'female div/dep/mar','\'(-inf-24.6]\'',skilled,good
<0,'existing paid','new car','\'(-inf-2067.4]\'',<100,'male div/sep','\'(35.8-41.4]\'',skilled,bad
'no checking','critical/other existing credit',radio/tv,'\'(2067.4-3884.8]\'',>=1000,'male single','\'(30.2-35.8]\'',skilled,good
0<=X<200,'existing paid',radio/tv,'\'(3884.8-5702.2]\'','no known savings','male single','\'(35.8-41.4]\'',skilled,good
<0,'existing paid',radio/tv,'\'(5702.2-7519.6]\'',<100,'female div/dep/mar','\'(30.2-35.8]\'',skilled,bad
<0,'existing paid',furniture/equipment,'\'(2067.4-3884.8]\'',<100,'female div/dep/mar','\'(-inf-24.6]\'','unskilled resident',bad
'no checking','critical/other existing credit',radio/tv,'\'(5702.2-7519.6]\'',<100,'male single','\'(35.8-41.4]\'',skilled,good
'no checking','existing paid','used car','\'(3884.8-5702.2]\'','no known savings','female div/dep/mar','\'(24.6-30.2]\'','high qualif/self emp/mgmt',good
<0,'existing paid',business,'\'(-inf-2067.4]\'',<100,'female div/dep/mar','\'(-inf-24.6]\'','unskilled resident',good
0<=X<200,'existing paid',radio/tv,'\'(-inf-2067.4]\'',<100,'male single','\'(24.6-30.2]\'','unskilled resident',good
'no checking','critical/other existing credit',furniture/equipment,'\'(2067.4-3884.8]\'',<100,'female div/dep/mar','\'(-inf-24.6]\'',skilled,good
0<=X<200,'existing paid',radio/tv,'\'(2067.4-3884.8]\'',<100,'female div/dep/mar','\'(24.6-30.2]\'',skilled,good
'no checking','critical/other existing credit',education,'\'(-inf-2067.4]\'','no known savings','female div/dep/mar','\'(30.2-35.8]\'',skilled,good
0<=X<200,'critical/other existing credit','new car','\'(2067.4-3884.8]\'',<100,'male div/sep','\'(24.6-30.2]\'',skilled,bad
'no checking','existing paid',retraining,'\'(-inf-2067.4]\'',<100,'male mar/wid','\'(24.6-30.2]\'','unskilled resident',good
0<=X<200,'critical/other existing credit','new car','\'(-inf-2067.4]\'',<100,'male single','\'(24.6-30.2]\'',skilled,bad
0<=X<200,'critical/other existing credit','new car','\'(2067.4-3884.8]\'',<100,'male single','\'(47-52.6]\'','unskilled resident',good
'no checking','existing paid',furniture/equipment,'\'(-inf-2067.4]\'',<100,'female div/dep/mar','\'(24.6-30.2]\'',skilled,good
0<=X<200,'existing paid',repairs,'\'(2067.4-3884.8]\'',<100,'male single','\'(30.2-35.8]\'','unskilled resident',bad
'no checking','existing paid','new car','\'(2067.4-3884.8]\'','no known savings','female div/dep/mar','\'(47-52.6]\'','high qualif/self emp/mgmt',good
<0,'existing paid',furniture/equipment,'\'(-inf-2067.4]\'',<100,'female div/dep/mar','\'(-inf-24.6]\'',skilled,bad
<0,'critical/other existing credit','new car','\'(2067.4-3884.8]\'',<100,'male single','\'(35.8-41.4]\'',skilled,good
<0,'existing paid',furniture/equipment,'\'(-inf-2067.4]\'',<100,'male single','\'(-inf-24.6]\'','unskilled resident',good
<0,'existing paid','domestic appliance','\'(-inf-2067.4]\'',<100,'male mar/wid','\'(41.4-47]\'','unskilled resident',bad
<0,'critical/other existing credit',furniture/equipment,'\'(2067.4-3884.8]\'',<100,'male single','\'(58.2-63.8]\'',skilled,bad
<0,'critical/other existing credit',radio/tv,'\'(-inf-2067.4]\'',<100,'female div/dep/mar','\'(52.6-58.2]\'','unskilled resident',good
0<=X<200,'delayed previously','new car','\'(-inf-2067.4]\'','no known savings','female div/dep/mar','\'(41.4-47]\'',skilled,good
'no checking','existing paid',business,'\'(-inf-2067.4]\'',>=1000,'female div/dep/mar','\'(35.8-41.4]\'','unskilled resident',good
0<=X<200,'existing paid','new car','\'(2067.4-3884.8]\'',<100,'female div/dep/mar','\'(-inf-24.6]\'','unskilled resident',bad
<0,'all paid',other,'\'(-inf-2067.4]\'','no known savings','male single','\'(35.8-41.4]\'','high qualif/self emp/mgmt',bad
0<=X<200,'all paid','new car','\'(-inf-2067.4]\'',100<=X<500,'female div/dep/mar','\'(30.2-35.8]\'','unskilled resident',bad
<0,'existing paid','new car','\'(-inf-2067.4]\'',<100,'female div/dep/mar','\'(-inf-24.6]\'',skilled,bad
0<=X<200,'no credits/ all paid',business,'\'(3884.8-5702.2]\'',<100,'male single','\'(35.8-41.4]\'','unskilled resident',bad
'no checking','critical/other existing credit','new car','\'(2067.4-3884.8]\'',<100,'male single','\'(30.2-35.8]\'',skilled,bad
'no checking','delayed previously',business,'\'(2067.4-3884.8]\'',<100,'male single','\'(30.2-35.8]\'',skilled,good
0<=X<200,'existing paid',radio/tv,'\'(2067.4-3884.8]\'',<100,'female div/dep/mar','\'(41.4-47]\'',skilled,good
0<=X<200,'existing paid',furniture/equipment,'\'(-inf-2067.4]\'',<100,'female div/dep/mar','\'(24.6-30.2]\'',skilled,bad
0<=X<200,'all paid',education,'\'(-inf-2067.4]\'',<100,'female div/dep/mar','\'(30.2-35.8]\'','unskilled resident',bad
'no checking','existing paid',furniture/equipment,'\'(2067.4-3884.8]\'',<100,'female div/dep/mar','\'(24.6-30.2]\'','high qualif/self emp/mgmt',bad
>=200,'existing paid',furniture/equipment,'\'(-inf-2067.4]\'',<100,'female div/dep/mar','\'(-inf-24.6]\'',skilled,good
<0,'all paid',furniture/equipment,'\'(2067.4-3884.8]\'',500<=X<1000,'male single','\'(-inf-24.6]\'',skilled,good
'no checking','critical/other existing credit',business,'\'(3884.8-5702.2]\'',<100,'male single','\'(69.4-inf)\'','high qualif/self emp/mgmt',good
0<=X<200,'existing paid',radio/tv,'\'(2067.4-3884.8]\'',100<=X<500,'female div/dep/mar','\'(47-52.6]\'',skilled,bad
'no checking','existing paid',radio/tv,'\'(-inf-2067.4]\'',<100,'male single','\'(30.2-35.8]\'',skilled,good
'no checking','existing paid','used car','\'(-inf-2067.4]\'','no known savings','male single','\'(41.4-47]\'',skilled,good
<0,'existing paid','domestic appliance','\'(-inf-2067.4]\'',100<=X<500,'female div/dep/mar','\'(-inf-24.6]\'',skilled,bad
>=200,'existing paid','new car','\'(-inf-2067.4]\'',100<=X<500,'female div/dep/mar','\'(47-52.6]\'','unskilled resident',bad
<0,'existing paid',radio/tv,'\'(2067.4-3884.8]\'',>=1000,'female div/dep/mar','\'(24.6-30.2]\'',skilled,good
<0,'all paid','used car','\'(2067.4-3884.8]\'',<100,'female div/dep/mar','\'(-inf-24.6]\'',skilled,good
'no checking','delayed previously',furniture/equipment,'\'(-inf-2067.4]\'',<100,'female div/dep/mar','\'(-inf-24.6]\'',skilled,bad
0<=X<200,'no credits/ all paid',business,'\'(11154.4-12971.8]\'','no known savings','male single','\'(47-52.6]\'','high qualif/self emp/mgmt',good
0<=X<200,'delayed previously',radio/tv,'\'(7519.6-9337]\'','no known savings','male single','\'(24.6-30.2]\'','high qualif/self emp/mgmt',good
<0,'critical/other existing credit','new car','\'(2067.4-3884.8]\'',<100,'male single','\'(35.8-41.4]\'',skilled,good
0<=X<200,'existing paid',furniture/equipment,'\'(2067.4-3884.8]\'',100<=X<500,'female div/dep/mar','\'(-inf-24.6]\'',skilled,bad
'no checking','existing paid','new car','\'(-inf-2067.4]\'',<100,'male div/sep','\'(47-52.6]\'','unskilled resident',good
0<=X<200,'critical/other existing credit',business,'\'(2067.4-3884.8]\'',<100,'male single','\'(24.6-30.2]\'',skilled,good
'no checking','critical/other existing credit','new car','\'(-inf-2067.4]\'',<100,'male single','\'(30.2-35.8]\'',skilled,bad
'no checking','existing paid',business,'\'(3884.8-5702.2]\'','no known savings','male div/sep','\'(35.8-41.4]\'',skilled,bad
<0,'existing paid',furniture/equipment,'\'(-inf-2067.4]\'',<100,'female div/dep/mar','\'(-inf-24.6]\'',skilled,good
<0,'existing paid',radio/tv,'\'(2067.4-3884.8]\'',<100,'male single','\'(63.8-69.4]\'',skilled,bad
'no checking','existing paid',radio/tv,'\'(-inf-2067.4]\'','no known savings','male single','\'(30.2-35.8]\'',skilled,good
>=200,'existing paid',furniture/equipment,'\'(2067.4-3884.8]\'',<100,'male single','\'(35.8-41.4]\'',skilled,good
0<=X<200,'all paid','new car','\'(-inf-2067.4]\'',100<=X<500,'male single','\'(24.6-30.2]\'',skilled,bad
'no checking','critical/other existing credit',furniture/equipment,'\'(3884.8-5702.2]\'',500<=X<1000,'male single','\'(35.8-41.4]\'',skilled,good
'no checking','existing paid',education,'\'(2067.4-3884.8]\'','no known savings','male single','\'(63.8-69.4]\'','unskilled resident',good
<0,'existing paid',radio/tv,'\'(2067.4-3884.8]\'',<100,'female div/dep/mar','\'(24.6-30.2]\'',skilled,good
<0,'all paid',furniture/equipment,'\'(-inf-2067.4]\'',<100,'male single','\'(41.4-47]\'',skilled,bad
0<=X<200,'existing paid',radio/tv,'\'(-inf-2067.4]\'','no known savings','male single','\'(-inf-24.6]\'',skilled,good
'no checking','existing paid',furniture/equipment,'\'(-inf-2067.4]\'',<100,'female div/dep/mar','\'(-inf-24.6]\'',skilled,bad
0<=X<200,'existing paid','new car','\'(-inf-2067.4]\'',<100,'female div/dep/mar','\'(24.6-30.2]\'','unskilled resident',bad
'no checking','existing paid',education,'\'(-inf-2067.4]\'',<100,'male single','\'(41.4-47]\'',skilled,good
'no checking','existing paid',radio/tv,'\'(-inf-2067.4]\'',500<=X<1000,'female div/dep/mar','\'(24.6-30.2]\'',skilled,good
'no checking','delayed previously',radio/tv,'\'(14789.2-16606.6]\'',<100,'male single','\'(-inf-24.6]\'',skilled,good
'no checking','existing paid',radio/tv,'\'(-inf-2067.4]\'',<100,'female div/dep/mar','\'(30.2-35.8]\'',skilled,good
<0,'delayed previously',radio/tv,'\'(3884.8-5702.2]\'',<100,'male single','\'(24.6-30.2]\'',skilled,bad
<0,'existing paid',education,'\'(-inf-2067.4]\'',<100,'female div/dep/mar','\'(24.6-30.2]\'','unemp/unskilled non res',bad
0<=X<200,'existing paid',repairs,'\'(-inf-2067.4]\'',<100,'male single','\'(35.8-41.4]\'','unskilled resident',good
'no checking','existing paid',education,'\'(3884.8-5702.2]\'',100<=X<500,'male single','\'(35.8-41.4]\'','high qualif/self emp/mgmt',bad
'no checking','critical/other existing credit',radio/tv,'\'(-inf-2067.4]\'',<100,'male mar/wid','\'(30.2-35.8]\'',skilled,good
<0,'critical/other existing credit',radio/tv,'\'(-inf-2067.4]\'',<100,'male mar/wid','\'(30.2-35.8]\'','high qualif/self emp/mgmt',good
'no checking','delayed previously',business,'\'(7519.6-9337]\'','no known savings','male single','\'(24.6-30.2]\'',skilled,bad
<0,'no credits/ all paid',furniture/equipment,'\'(3884.8-5702.2]\'',<100,'male div/sep','\'(30.2-35.8]\'',skilled,good
'no checking','existing paid','new car','\'(-inf-2067.4]\'',500<=X<1000,'female div/dep/mar','\'(24.6-30.2]\'',skilled,bad
>=200,'existing paid','new car','\'(-inf-2067.4]\'',<100,'male single','\'(35.8-41.4]\'',skilled,bad
<0,'existing paid',education,'\'(-inf-2067.4]\'',<100,'male single','\'(35.8-41.4]\'','unskilled resident',bad
<0,'existing paid',education,'\'(5702.2-7519.6]\'',<100,'male single','\'(47-52.6]\'','high qualif/self emp/mgmt',good
0<=X<200,'existing paid',furniture/equipment,'\'(-inf-2067.4]\'',<100,'male single','\'(35.8-41.4]\'','unskilled resident',bad
<0,'existing paid','new car','\'(2067.4-3884.8]\'',<100,'male single','\'(41.4-47]\'',skilled,bad
0<=X<200,'delayed previously','new car','\'(7519.6-9337]\'',100<=X<500,'male single','\'(41.4-47]\'','high qualif/self emp/mgmt',bad
'no checking','critical/other existing credit','used car','\'(2067.4-3884.8]\'',<100,'male single','\'(30.2-35.8]\'',skilled,good
<0,'existing paid','new car','\'(3884.8-5702.2]\'',<100,'male single','\'(-inf-24.6]\'',skilled,good
0<=X<200,'existing paid','new car','\'(-inf-2067.4]\'',<100,'male single','\'(35.8-41.4]\'','unskilled resident',bad
'no checking','existing paid',radio/tv,'\'(9337-11154.4]\'','no known savings','male single','\'(35.8-41.4]\'',skilled,good
0<=X<200,'no credits/ all paid',business,'\'(3884.8-5702.2]\'',<100,'female div/dep/mar','\'(24.6-30.2]\'',skilled,good
0<=X<200,'critical/other existing credit',furniture/equipment,'\'(5702.2-7519.6]\'',<100,'male single','\'(35.8-41.4]\'',skilled,good
>=200,'existing paid',radio/tv,'\'(-inf-2067.4]\'',<100,'male mar/wid','\'(-inf-24.6]\'',skilled,good
<0,'existing paid','new car','\'(-inf-2067.4]\'','no known savings','male mar/wid','\'(-inf-24.6]\'',skilled,bad
'no checking','existing paid',furniture/equipment,'\'(2067.4-3884.8]\'',<100,'male single','\'(47-52.6]\'',skilled,good
0<=X<200,'delayed previously',furniture/equipment,'\'(-inf-2067.4]\'',<100,'male single','\'(30.2-35.8]\'','high qualif/self emp/mgmt',good
>=200,'critical/other existing credit',education,'\'(-inf-2067.4]\'',<100,'female div/dep/mar','\'(47-52.6]\'','unskilled resident',good
'no checking','critical/other existing credit',other,'\'(5702.2-7519.6]\'',<100,'male single','\'(24.6-30.2]\'','high qualif/self emp/mgmt',good
0<=X<200,'all paid',furniture/equipment,'\'(2067.4-3884.8]\'',>=1000,'male single','\'(30.2-35.8]\'',skilled,good
'no checking','all paid',business,'\'(2067.4-3884.8]\'',<100,'female div/dep/mar','\'(24.6-30.2]\'',skilled,good
<0,'critical/other existing credit','new car','\'(3884.8-5702.2]\'',<100,'male single','\'(41.4-47]\'',skilled,bad
>=200,'critical/other existing credit',radio/tv,'\'(2067.4-3884.8]\'',<100,'male single','\'(41.4-47]\'',skilled,good
'no checking','critical/other existing credit',business,'\'(3884.8-5702.2]\'',100<=X<500,'male single','\'(24.6-30.2]\'','unskilled resident',good
'no checking','existing paid',business,'\'(5702.2-7519.6]\'',100<=X<500,'male single','\'(30.2-35.8]\'',skilled,good
'no checking','existing paid','new car','\'(9337-11154.4]\'',<100,'male single','\'(41.4-47]\'','high qualif/self emp/mgmt',good
'no checking','critical/other existing credit','new car','\'(2067.4-3884.8]\'',500<=X<1000,'male mar/wid','\'(-inf-24.6]\'',skilled,good
'no checking','delayed previously',business,'\'(2067.4-3884.8]\'',500<=X<1000,'male single','\'(35.8-41.4]\'','unskilled resident',bad
'no checking','critical/other existing credit',radio/tv,'\'(3884.8-5702.2]\'',<100,'female div/dep/mar','\'(24.6-30.2]\'','high qualif/self emp/mgmt',good
'no checking','critical/other existing credit',furniture/equipment,'\'(3884.8-5702.2]\'',<100,'male single','\'(30.2-35.8]\'',skilled,good
0<=X<200,'existing paid',radio/tv,'\'(3884.8-5702.2]\'',100<=X<500,'male mar/wid','\'(-inf-24.6]\'',skilled,bad
<0,'existing paid',radio/tv,'\'(2067.4-3884.8]\'',<100,'male single','\'(63.8-69.4]\'','unskilled resident',good
'no checking','existing paid',radio/tv,'\'(-inf-2067.4]\'',<100,'female div/dep/mar','\'(24.6-30.2]\'',skilled,good
'no checking','existing paid',education,'\'(-inf-2067.4]\'',<100,'female div/dep/mar','\'(52.6-58.2]\'',skilled,good
'no checking','existing paid',radio/tv,'\'(2067.4-3884.8]\'','no known savings','male single','\'(35.8-41.4]\'',skilled,good
'no checking','delayed previously',radio/tv,'\'(-inf-2067.4]\'',<100,'male mar/wid','\'(30.2-35.8]\'',skilled,good
'no checking','critical/other existing credit',radio/tv,'\'(3884.8-5702.2]\'',<100,'male mar/wid','\'(41.4-47]\'',skilled,good
0<=X<200,'delayed previously',business,'\'(9337-11154.4]\'',100<=X<500,'male single','\'(30.2-35.8]\'','unskilled resident',good
'no checking','existing paid','new car','\'(5702.2-7519.6]\'','no known savings','male single','\'(30.2-35.8]\'',skilled,good
>=200,'critical/other existing credit',radio/tv,'\'(-inf-2067.4]\'','no known savings','male single','\'(24.6-30.2]\'',skilled,good
0<=X<200,'delayed previously','new car','\'(3884.8-5702.2]\'',100<=X<500,'male single','\'(24.6-30.2]\'',skilled,good
'no checking','existing paid',radio/tv,'\'(2067.4-3884.8]\'',100<=X<500,'male single','\'(30.2-35.8]\'',skilled,good
<0,'existing paid','new car','\'(2067.4-3884.8]\'',>=1000,'male single','\'(30.2-35.8]\'',skilled,good
<0,'critical/other existing credit',furniture/equipment,'\'(-inf-2067.4]\'',<100,'male div/sep','\'(24.6-30.2]\'',skilled,good
0<=X<200,'existing paid',repairs,'\'(2067.4-3884.8]\'',100<=X<500,'female div/dep/mar','\'(24.6-30.2]\'','unskilled resident',good
0<=X<200,'existing paid',radio/tv,'\'(2067.4-3884.8]\'',100<=X<500,'male single','\'(24.6-30.2]\'',skilled,good
<0,'critical/other existing credit','new car','\'(3884.8-5702.2]\'','no known savings','male single','\'(41.4-47]\'','unskilled resident',good
'no checking','existing paid',radio/tv,'\'(2067.4-3884.8]\'',<100,'male single','\'(24.6-30.2]\'',skilled,good
'no checking','existing paid','used car','\'(-inf-2067.4]\'',500<=X<1000,'male single','\'(47-52.6]\'',skilled,good
0<=X<200,'existing paid',radio/tv,'\'(-inf-2067.4]\'',<100,'male single','\'(24.6-30.2]\'',skilled,good
'no checking','critical/other existing credit','new car','\'(-inf-2067.4]\'',<100,'female div/dep/mar','\'(35.8-41.4]\'','unemp/unskilled non res',good
'no checking','critical/other existing credit',radio/tv,'\'(-inf-2067.4]\'',<100,'male single','\'(-inf-24.6]\'',skilled,good
>=200,'existing paid',education,'\'(-inf-2067.4]\'',<100,'male single','\'(35.8-41.4]\'','high qualif/self emp/mgmt',good
'no checking','existing paid',furniture/equipment,'\'(-inf-2067.4]\'',500<=X<1000,'female div/dep/mar','\'(24.6-30.2]\'','unskilled resident',bad
<0,'critical/other existing credit','used car','\'(5702.2-7519.6]\'',<100,'male single','\'(41.4-47]\'',skilled,bad
>=200,'existing paid',radio/tv,'\'(-inf-2067.4]\'',100<=X<500,'female div/dep/mar','\'(41.4-47]\'',skilled,good
0<=X<200,'delayed previously',business,'\'(2067.4-3884.8]\'',100<=X<500,'male single','\'(35.8-41.4]\'',skilled,good
0<=X<200,'existing paid',business,'\'(2067.4-3884.8]\'',<100,'female div/dep/mar','\'(30.2-35.8]\'',skilled,good
'no checking','existing paid','new car','\'(3884.8-5702.2]\'',500<=X<1000,'female div/dep/mar','\'(30.2-35.8]\'',skilled,good
0<=X<200,'existing paid','new car','\'(5702.2-7519.6]\'',100<=X<500,'male single','\'(-inf-24.6]\'',skilled,bad
0<=X<200,'no credits/ all paid',furniture/equipment,'\'(2067.4-3884.8]\'',<100,'female div/dep/mar','\'(24.6-30.2]\'',skilled,bad
0<=X<200,'existing paid',radio/tv,'\'(-inf-2067.4]\'',<100,'female div/dep/mar','\'(24.6-30.2]\'',skilled,good
0<=X<200,'existing paid',radio/tv,'\'(2067.4-3884.8]\'',<100,'male single','\'(35.8-41.4]\'','unskilled resident',good
'no checking','critical/other existing credit',radio/tv,'\'(-inf-2067.4]\'',500<=X<1000,'male single','\'(30.2-35.8]\'','high qualif/self emp/mgmt',good
<0,'all paid',education,'\'(-inf-2067.4]\'',<100,'female div/dep/mar','\'(30.2-35.8]\'',skilled,bad
'no checking','existing paid','used car','\'(2067.4-3884.8]\'','no known savings','male single','\'(41.4-47]\'','high qualif/self emp/mgmt',good
<0,'critical/other existing credit',radio/tv,'\'(-inf-2067.4]\'',<100,'male single','\'(24.6-30.2]\'','unskilled resident',good
0<=X<200,'existing paid','new car','\'(12971.8-14789.2]\'',<100,'male single','\'(24.6-30.2]\'','high qualif/self emp/mgmt',bad
'no checking','critical/other existing credit','used car','\'(7519.6-9337]\'','no known savings','male single','\'(58.2-63.8]\'',skilled,good
'no checking','critical/other existing credit',radio/tv,'\'(2067.4-3884.8]\'','no known savings','male single','\'(35.8-41.4]\'',skilled,good
'no checking','existing paid',radio/tv,'\'(-inf-2067.4]\'',<100,'male single','\'(30.2-35.8]\'','high qualif/self emp/mgmt',good
>=200,'critical/other existing credit',radio/tv,'\'(2067.4-3884.8]\'','no known savings','male single','\'(30.2-35.8]\'',skilled,good
0<=X<200,'no credits/ all paid','used car','\'(5702.2-7519.6]\'',100<=X<500,'male mar/wid','\'(30.2-35.8]\'',skilled,good
>=200,'no credits/ all paid',radio/tv,'\'(-inf-2067.4]\'',<100,'male single','\'(30.2-35.8]\'','high qualif/self emp/mgmt',bad
0<=X<200,'all paid',education,'\'(-inf-2067.4]\'',>=1000,'female div/dep/mar','\'(-inf-24.6]\'',skilled,bad
<0,'existing paid','new car','\'(-inf-2067.4]\'',<100,'female div/dep/mar','\'(-inf-24.6]\'','unskilled resident',bad
0<=X<200,'existing paid',radio/tv,'\'(-inf-2067.4]\'',500<=X<1000,'female div/dep/mar','\'(63.8-69.4]\'','unskilled resident',good
'no checking','existing paid','new car','\'(2067.4-3884.8]\'',<100,'female div/dep/mar','\'(-inf-24.6]\'',skilled,bad
'no checking','critical/other existing credit','new car','\'(-inf-2067.4]\'',>=1000,'female div/dep/mar','\'(35.8-41.4]\'','unskilled resident',good
'no checking','critical/other existing credit',radio/tv,'\'(-inf-2067.4]\'',500<=X<1000,'male mar/wid','\'(41.4-47]\'','unskilled resident',good
<0,'existing paid',radio/tv,'\'(-inf-2067.4]\'',<100,'female div/dep/mar','\'(24.6-30.2]\'',skilled,bad
0<=X<200,'all paid',business,'\'(5702.2-7519.6]\'',<100,'female div/dep/mar','\'(58.2-63.8]\'',skilled,bad
>=200,'critical/other existing credit',business,'\'(-inf-2067.4]\'',>=1000,'male div/sep','\'(35.8-41.4]\'',skilled,good
0<=X<200,'delayed previously',radio/tv,'\'(5702.2-7519.6]\'',<100,'male single','\'(30.2-35.8]\'',skilled,good
<0,'existing paid',radio/tv,'\'(-inf-2067.4]\'',<100,'male single','\'(-inf-24.6]\'','unskilled resident',bad
0<=X<200,'existing paid',radio/tv,'\'(-inf-2067.4]\'',<100,'female div/dep/mar','\'(41.4-47]\'','unskilled resident',good
'no checking','existing paid','used car','\'(2067.4-3884.8]\'',>=1000,'female div/dep/mar','\'(24.6-30.2]\'',skilled,good
'no checking','critical/other existing credit','new car','\'(2067.4-3884.8]\'',<100,'female div/dep/mar','\'(35.8-41.4]\'',skilled,good
0<=X<200,'all paid','domestic appliance','\'(3884.8-5702.2]\'','no known savings','female div/dep/mar','\'(24.6-30.2]\'','unemp/unskilled non res',good
0<=X<200,'existing paid','used car','\'(11154.4-12971.8]\'',<100,'female div/dep/mar','\'(-inf-24.6]\'','high qualif/self emp/mgmt',bad
<0,'existing paid','new car','\'(3884.8-5702.2]\'',100<=X<500,'male single','\'(30.2-35.8]\'','unskilled resident',good
'no checking','critical/other existing credit','new car','\'(5702.2-7519.6]\'',<100,'male single','\'(41.4-47]\'','high qualif/self emp/mgmt',good
0<=X<200,'no credits/ all paid',business,'\'(3884.8-5702.2]\'',100<=X<500,'female div/dep/mar','\'(24.6-30.2]\'','unskilled resident',bad
<0,'all paid','new car','\'(2067.4-3884.8]\'',100<=X<500,'male single','\'(30.2-35.8]\'',skilled,good
0<=X<200,'all paid',radio/tv,'\'(-inf-2067.4]\'',<100,'male single','\'(-inf-24.6]\'','unskilled resident',good
'no checking','existing paid',radio/tv,'\'(2067.4-3884.8]\'','no known savings','male single','\'(35.8-41.4]\'',skilled,good
<0,'all paid',furniture/equipment,'\'(2067.4-3884.8]\'',500<=X<1000,'male single','\'(-inf-24.6]\'',skilled,good
<0,'critical/other existing credit',furniture/equipment,'\'(12971.8-14789.2]\'','no known savings','male single','\'(24.6-30.2]\'','high qualif/self emp/mgmt',good
<0,'critical/other existing credit',business,'\'(-inf-2067.4]\'',<100,'male single','\'(24.6-30.2]\'','unskilled resident',good
<0,'existing paid','new car','\'(2067.4-3884.8]\'',<100,'female div/dep/mar','\'(-inf-24.6]\'',skilled,good
<0,'existing paid','new car','\'(-inf-2067.4]\'',<100,'female div/dep/mar','\'(35.8-41.4]\'','unskilled resident',bad
'no checking','existing paid','used car','\'(3884.8-5702.2]\'','no known savings','male single','\'(24.6-30.2]\'',skilled,good
'no checking','existing paid','used car','\'(2067.4-3884.8]\'',<100,'male single','\'(30.2-35.8]\'',skilled,good
<0,'existing paid',furniture/equipment,'\'(-inf-2067.4]\'',<100,'female div/dep/mar','\'(47-52.6]\'',skilled,good
<0,'existing paid','new car','\'(-inf-2067.4]\'',<100,'female div/dep/mar','\'(-inf-24.6]\'','unskilled resident',bad
0<=X<200,'existing paid',business,'\'(-inf-2067.4]\'',100<=X<500,'female div/dep/mar','\'(-inf-24.6]\'','unskilled resident',good
'no checking','critical/other existing credit',radio/tv,'\'(5702.2-7519.6]\'',<100,'female div/dep/mar','\'(24.6-30.2]\'',skilled,good
'no checking','delayed previously',repairs,'\'(-inf-2067.4]\'',>=1000,'male single','\'(52.6-58.2]\'',skilled,bad
<0,'existing paid','new car','\'(-inf-2067.4]\'','no known savings','female div/dep/mar','\'(30.2-35.8]\'',skilled,bad
>=200,'critical/other existing credit','new car','\'(-inf-2067.4]\'',<100,'male single','\'(69.4-inf)\'','unemp/unskilled non res',good
>=200,'critical/other existing credit',radio/tv,'\'(-inf-2067.4]\'','no known savings','male single','\'(35.8-41.4]\'',skilled,bad
'no checking','existing paid','new car','\'(-inf-2067.4]\'',<100,'male single','\'(30.2-35.8]\'',skilled,good
<0,'critical/other existing credit','new car','\'(-inf-2067.4]\'',<100,'male single','\'(30.2-35.8]\'',skilled,bad
'no checking','critical/other existing credit','new car','\'(3884.8-5702.2]\'','no known savings','female div/dep/mar','\'(58.2-63.8]\'',skilled,good
<0,'critical/other existing credit',furniture/equipment,'\'(2067.4-3884.8]\'',<100,'female div/dep/mar','\'(-inf-24.6]\'',skilled,bad
<0,'existing paid',radio/tv,'\'(2067.4-3884.8]\'',<100,'male single','\'(-inf-24.6]\'','unskilled resident',good
'no checking','critical/other existing credit','new car','\'(11154.4-12971.8]\'','no known savings','male single','\'(24.6-30.2]\'','high qualif/self emp/mgmt',bad
'no checking','critical/other existing credit','new car','\'(2067.4-3884.8]\'',100<=X<500,'male mar/wid','\'(24.6-30.2]\'',skilled,good
0<=X<200,'existing paid',radio/tv,'\'(-inf-2067.4]\'',<100,'male mar/wid','\'(35.8-41.4]\'','unskilled resident',good
<0,'existing paid',furniture/equipment,'\'(2067.4-3884.8]\'',<100,'male div/sep','\'(30.2-35.8]\'','unskilled resident',bad
'no checking','existing paid','used car','\'(2067.4-3884.8]\'','no known savings','female div/dep/mar','\'(30.2-35.8]\'',skilled,good
0<=X<200,'critical/other existing credit',furniture/equipment,'\'(2067.4-3884.8]\'',<100,'male single','\'(24.6-30.2]\'',skilled,good
'no checking','critical/other existing credit',radio/tv,'\'(-inf-2067.4]\'',<100,'male single','\'(58.2-63.8]\'','unskilled resident',good
<0,'existing paid','used car','\'(2067.4-3884.8]\'','no known savings','female div/dep/mar','\'(24.6-30.2]\'',skilled,good
<0,'critical/other existing credit',education,'\'(7519.6-9337]\'',<100,'female div/dep/mar','\'(24.6-30.2]\'','high qualif/self emp/mgmt',bad
'no checking','critical/other existing credit','used car','\'(2067.4-3884.8]\'',<100,'male single','\'(35.8-41.4]\'','high qualif/self emp/mgmt',good
'no checking','critical/other existing credit',radio/tv,'\'(2067.4-3884.8]\'',100<=X<500,'male single','\'(47-52.6]\'',skilled,good
>=200,'critical/other existing credit','new car','\'(-inf-2067.4]\'',500<=X<1000,'male single','\'(63.8-69.4]\'','unemp/unskilled non res',good
<0,'existing paid','new car','\'(-inf-2067.4]\'','no known savings','female div/dep/mar','\'(24.6-30.2]\'',skilled,bad
'no checking','critical/other existing credit','new car','\'(2067.4-3884.8]\'',<100,'male single','\'(35.8-41.4]\'',skilled,good
<0,'existing paid',radio/tv,'\'(2067.4-3884.8]\'',<100,'female div/dep/mar','\'(24.6-30.2]\'',skilled,good
'no checking','critical/other existing credit','used car','\'(5702.2-7519.6]\'',>=1000,'male single','\'(35.8-41.4]\'','high qualif/self emp/mgmt',good
0<=X<200,'existing paid',repairs,'\'(2067.4-3884.8]\'',<100,'female div/dep/mar','\'(63.8-69.4]\'',skilled,good
0<=X<200,'critical/other existing credit',radio/tv,'\'(3884.8-5702.2]\'',<100,'male single','\'(24.6-30.2]\'',skilled,bad
'no checking','critical/other existing credit','new car','\'(-inf-2067.4]\'',>=1000,'male single','\'(58.2-63.8]\'',skilled,good
0<=X<200,'no credits/ all paid',retraining,'\'(-inf-2067.4]\'',<100,'male single','\'(30.2-35.8]\'','unskilled resident',good
0<=X<200,'existing paid','new car','\'(-inf-2067.4]\'',100<=X<500,'female div/dep/mar','\'(-inf-24.6]\'','unskilled resident',bad
0<=X<200,'existing paid','used car','\'(5702.2-7519.6]\'','no known savings','male div/sep','\'(58.2-63.8]\'','high qualif/self emp/mgmt',good
0<=X<200,'existing paid',business,'\'(-inf-2067.4]\'',>=1000,'male single','\'(30.2-35.8]\'','unskilled resident',good
'no checking','existing paid',radio/tv,'\'(2067.4-3884.8]\'',500<=X<1000,'male single','\'(35.8-41.4]\'',skilled,good
'no checking','critical/other existing credit','used car','\'(2067.4-3884.8]\'','no known savings','male single','\'(35.8-41.4]\'',skilled,good
0<=X<200,'delayed previously',education,'\'(5702.2-7519.6]\'',<100,'male single','\'(47-52.6]\'',skilled,bad
<0,'critical/other existing credit',education,'\'(5702.2-7519.6]\'',<100,'male single','\'(24.6-30.2]\'',skilled,bad
0<=X<200,'existing paid',business,'\'(-inf-2067.4]\'',<100,'female div/dep/mar','\'(35.8-41.4]\'',skilled,bad
'no checking','existing paid','used car','\'(5702.2-7519.6]\'','no known savings','male single','\'(35.8-41.4]\'','high qualif/self emp/mgmt',good
'no checking','critical/other existing credit',furniture/equipment,'\'(-inf-2067.4]\'','no known savings','male mar/wid','\'(24.6-30.2]\'',skilled,good
>=200,'existing paid',furniture/equipment,'\'(2067.4-3884.8]\'',<100,'male div/sep','\'(47-52.6]\'',skilled,good
'no checking','existing paid',furniture/equipment,'\'(2067.4-3884.8]\'',500<=X<1000,'male single','\'(30.2-35.8]\'',skilled,good
'no checking','existing paid',furniture/equipment,'\'(2067.4-3884.8]\'',100<=X<500,'female div/dep/mar','\'(-inf-24.6]\'',skilled,good
<0,'existing paid','used car','\'(5702.2-7519.6]\'','no known savings','male single','\'(47-52.6]\'',skilled,bad
'no checking','critical/other existing credit',furniture/equipment,'\'(-inf-2067.4]\'',<100,'female div/dep/mar','\'(-inf-24.6]\'','unskilled resident',good
'no checking','delayed previously','new car','\'(-inf-2067.4]\'','no known savings','male mar/wid','\'(52.6-58.2]\'',skilled,good
0<=X<200,'existing paid','new car','\'(-inf-2067.4]\'','no known savings','male single','\'(30.2-35.8]\'','unemp/unskilled non res',good
'no checking','critical/other existing credit',education,'\'(-inf-2067.4]\'',<100,'male single','\'(52.6-58.2]\'',skilled,good
0<=X<200,'critical/other existing credit',radio/tv,'\'(-inf-2067.4]\'',<100,'female div/dep/mar','\'(47-52.6]\'','unskilled resident',good
<0,'critical/other existing credit',furniture/equipment,'\'(3884.8-5702.2]\'',<100,'female div/dep/mar','\'(-inf-24.6]\'',skilled,good
'no checking','critical/other existing credit',radio/tv,'\'(-inf-2067.4]\'','no known savings','male single','\'(30.2-35.8]\'',skilled,good
0<=X<200,'existing paid','new car','\'(5702.2-7519.6]\'','no known savings','female div/dep/mar','\'(-inf-24.6]\'','unemp/unskilled non res',good
<0,'existing paid','new car','\'(7519.6-9337]\'',<100,'male single','\'(-inf-24.6]\'',skilled,bad
0<=X<200,'existing paid',radio/tv,'\'(-inf-2067.4]\'',<100,'male mar/wid','\'(24.6-30.2]\'','unskilled resident',good
'no checking','critical/other existing credit',radio/tv,'\'(-inf-2067.4]\'','no known savings','male single','\'(63.8-69.4]\'',skilled,good
0<=X<200,'all paid','used car','\'(7519.6-9337]\'',<100,'male single','\'(52.6-58.2]\'','high qualif/self emp/mgmt',good
0<=X<200,'no credits/ all paid','new car','\'(-inf-2067.4]\'',<100,'female div/dep/mar','\'(24.6-30.2]\'','unemp/unskilled non res',bad
0<=X<200,'existing paid',business,'\'(-inf-2067.4]\'',<100,'male mar/wid','\'(24.6-30.2]\'',skilled,good
0<=X<200,'existing paid',radio/tv,'\'(-inf-2067.4]\'',<100,'male mar/wid','\'(24.6-30.2]\'','unskilled resident',good
<0,'critical/other existing credit','used car','\'(9337-11154.4]\'',<100,'male single','\'(-inf-24.6]\'',skilled,bad
<0,'existing paid','domestic appliance','\'(2067.4-3884.8]\'',<100,'male single','\'(52.6-58.2]\'',skilled,bad
<0,'existing paid','new car','\'(3884.8-5702.2]\'',<100,'male single','\'(41.4-47]\'',skilled,bad
0<=X<200,'delayed previously','new car','\'(5702.2-7519.6]\'',<100,'female div/dep/mar','\'(52.6-58.2]\'',skilled,good
'no checking','existing paid','domestic appliance','\'(-inf-2067.4]\'',500<=X<1000,'male div/sep','\'(58.2-63.8]\'',skilled,good
'no checking','critical/other existing credit',radio/tv,'\'(-inf-2067.4]\'',<100,'female div/dep/mar','\'(-inf-24.6]\'',skilled,good
<0,'existing paid',other,'\'(14789.2-16606.6]\'',<100,'male div/sep','\'(41.4-47]\'','high qualif/self emp/mgmt',good
<0,'existing paid',radio/tv,'\'(-inf-2067.4]\'',<100,'male mar/wid','\'(24.6-30.2]\'',skilled,bad
'no checking','existing paid','new car','\'(-inf-2067.4]\'',<100,'male mar/wid','\'(24.6-30.2]\'',skilled,good
>=200,'existing paid',radio/tv,'\'(2067.4-3884.8]\'',<100,'male mar/wid','\'(-inf-24.6]\'',skilled,good
<0,'existing paid',furniture/equipment,'\'(2067.4-3884.8]\'',<100,'male single','\'(35.8-41.4]\'',skilled,bad
<0,'critical/other existing credit','new car','\'(-inf-2067.4]\'',<100,'male single','\'(41.4-47]\'','unskilled resident',good
'no checking','critical/other existing credit',furniture/equipment,'\'(2067.4-3884.8]\'',<100,'male div/sep','\'(30.2-35.8]\'','high qualif/self emp/mgmt',good
<0,'critical/other existing credit','new car','\'(-inf-2067.4]\'',<100,'male mar/wid','\'(24.6-30.2]\'',skilled,good
<0,'critical/other existing credit','new car','\'(3884.8-5702.2]\'',<100,'female div/dep/mar','\'(30.2-35.8]\'',skilled,bad
'no checking','no credits/ all paid',business,'\'(3884.8-5702.2]\'',<100,'male single','\'(35.8-41.4]\'',skilled,bad
<0,'existing paid','used car','\'(7519.6-9337]\'','no known savings','male single','\'(41.4-47]\'',skilled,bad
0<=X<200,'delayed previously',business,'\'(5702.2-7519.6]\'','no known savings','male single','\'(35.8-41.4]\'',skilled,good
'no checking','delayed previously',business,'\'(2067.4-3884.8]\'',500<=X<1000,'male single','\'(41.4-47]\'',skilled,good
<0,'existing paid','new car','\'(-inf-2067.4]\'',<100,'female div/dep/mar','\'(-inf-24.6]\'',skilled,bad
<0,'no credits/ all paid',business,'\'(11154.4-12971.8]\'',<100,'male single','\'(24.6-30.2]\'',skilled,bad
0<=X<200,'existing paid',radio/tv,'\'(3884.8-5702.2]\'','no known savings','female div/dep/mar','\'(41.4-47]\'',skilled,good
>=200,'existing paid',radio/tv,'\'(2067.4-3884.8]\'',<100,'female div/dep/mar','\'(24.6-30.2]\'','unskilled resident',bad
<0,'no credits/ all paid','new car','\'(-inf-2067.4]\'',<100,'male single','\'(47-52.6]\'',skilled,bad
'no checking','existing paid',radio/tv,'\'(-inf-2067.4]\'','no known savings','female div/dep/mar','\'(-inf-24.6]\'',skilled,good
'no checking','existing paid',furniture/equipment,'\'(-inf-2067.4]\'',<100,'female div/dep/mar','\'(-inf-24.6]\'','unskilled resident',good
<0,'critical/other existing credit','used car','\'(2067.4-3884.8]\'',<100,'male single','\'(58.2-63.8]\'',skilled,good
'no checking','critical/other existing credit',radio/tv,'\'(2067.4-3884.8]\'',<100,'male mar/wid','\'(41.4-47]\'',skilled,good
<0,'existing paid',furniture/equipment,'\'(3884.8-5702.2]\'',<100,'male single','\'(24.6-30.2]\'',skilled,bad
'no checking','delayed previously','used car','\'(2067.4-3884.8]\'',<100,'male single','\'(24.6-30.2]\'','unskilled resident',good
'no checking','existing paid',repairs,'\'(-inf-2067.4]\'',<100,'female div/dep/mar','\'(-inf-24.6]\'',skilled,bad
'no checking','all paid',business,'\'(-inf-2067.4]\'',<100,'male single','\'(47-52.6]\'',skilled,good
'no checking','existing paid',furniture/equipment,'\'(2067.4-3884.8]\'',<100,'male single','\'(41.4-47]\'',skilled,good
0<=X<200,'existing paid',furniture/equipment,'\'(3884.8-5702.2]\'','no known savings','male single','\'(30.2-35.8]\'',skilled,good
'no checking','existing paid','new car','\'(5702.2-7519.6]\'','no known savings','male single','\'(63.8-69.4]\'',skilled,bad
'no checking','existing paid','new car','\'(-inf-2067.4]\'',<100,'male mar/wid','\'(24.6-30.2]\'',skilled,good
<0,'existing paid',radio/tv,'\'(-inf-2067.4]\'',<100,'male single','\'(58.2-63.8]\'',skilled,good
<0,'existing paid',radio/tv,'\'(-inf-2067.4]\'',<100,'male single','\'(52.6-58.2]\'','unskilled resident',bad
<0,'critical/other existing credit','new car','\'(2067.4-3884.8]\'',<100,'male mar/wid','\'(30.2-35.8]\'',skilled,bad
'no checking','critical/other existing credit','used car','\'(3884.8-5702.2]\'','no known savings','male single','\'(41.4-47]\'',skilled,good
'no checking','critical/other existing credit',radio/tv,'\'(-inf-2067.4]\'',<100,'male single','\'(30.2-35.8]\'',skilled,good
<0,'all paid','new car','\'(-inf-2067.4]\'',<100,'male single','\'(30.2-35.8]\'','unskilled resident',bad
'no checking','delayed previously','new car','\'(9337-11154.4]\'',<100,'male single','\'(41.4-47]\'',skilled,good
'no checking','existing paid','new car','\'(-inf-2067.4]\'',100<=X<500,'male mar/wid','\'(30.2-35.8]\'',skilled,good
'no checking','existing paid',retraining,'\'(-inf-2067.4]\'','no known savings','female div/dep/mar','\'(35.8-41.4]\'',skilled,good
'no checking','critical/other existing credit',furniture/equipment,'\'(2067.4-3884.8]\'',<100,'male single','\'(24.6-30.2]\'',skilled,good
<0,'existing paid','new car','\'(3884.8-5702.2]\'',<100,'female div/dep/mar','\'(24.6-30.2]\'',skilled,bad
'no checking','existing paid','new car','\'(2067.4-3884.8]\'',100<=X<500,'male single','\'(24.6-30.2]\'',skilled,good
'no checking','critical/other existing credit','used car','\'(5702.2-7519.6]\'',>=1000,'male single','\'(24.6-30.2]\'',skilled,good
'no checking','delayed previously',business,'\'(2067.4-3884.8]\'',<100,'male mar/wid','\'(24.6-30.2]\'',skilled,bad
<0,'existing paid',radio/tv,'\'(2067.4-3884.8]\'',<100,'female div/dep/mar','\'(30.2-35.8]\'',skilled,bad
'no checking','critical/other existing credit',furniture/equipment,'\'(3884.8-5702.2]\'',>=1000,'male single','\'(30.2-35.8]\'','unskilled resident',good
'no checking','existing paid',furniture/equipment,'\'(2067.4-3884.8]\'',<100,'male single','\'(24.6-30.2]\'','unskilled resident',bad
'no checking','existing paid',furniture/equipment,'\'(2067.4-3884.8]\'',500<=X<1000,'female div/dep/mar','\'(-inf-24.6]\'',skilled,good
<0,'existing paid',radio/tv,'\'(2067.4-3884.8]\'',<100,'female div/dep/mar','\'(24.6-30.2]\'',skilled,good
'no checking','critical/other existing credit',furniture/equipment,'\'(2067.4-3884.8]\'',<100,'male single','\'(41.4-47]\'',skilled,good
'no checking','existing paid',business,'\'(5702.2-7519.6]\'','no known savings','male single','\'(35.8-41.4]\'',skilled,good
<0,'existing paid',furniture/equipment,'\'(-inf-2067.4]\'',<100,'female div/dep/mar','\'(-inf-24.6]\'',skilled,good
'no checking','delayed previously',furniture/equipment,'\'(7519.6-9337]\'',500<=X<1000,'female div/dep/mar','\'(35.8-41.4]\'',skilled,good
>=200,'critical/other existing credit','new car','\'(-inf-2067.4]\'',<100,'male single','\'(41.4-47]\'',skilled,good
<0,'critical/other existing credit',business,'\'(-inf-2067.4]\'',100<=X<500,'male single','\'(24.6-30.2]\'',skilled,good
'no checking','existing paid','domestic appliance','\'(-inf-2067.4]\'','no known savings','female div/dep/mar','\'(-inf-24.6]\'',skilled,good
<0,'existing paid',furniture/equipment,'\'(2067.4-3884.8]\'',<100,'male single','\'(24.6-30.2]\'','unskilled resident',good
0<=X<200,'critical/other existing credit','new car','\'(-inf-2067.4]\'',>=1000,'female div/dep/mar','\'(35.8-41.4]\'',skilled,good
<0,'all paid',radio/tv,'\'(-inf-2067.4]\'',<100,'male single','\'(35.8-41.4]\'','high qualif/self emp/mgmt',good
'no checking','existing paid',radio/tv,'\'(2067.4-3884.8]\'',<100,'male single','\'(24.6-30.2]\'',skilled,good
<0,'existing paid','new car','\'(-inf-2067.4]\'',<100,'male single','\'(24.6-30.2]\'','high qualif/self emp/mgmt',bad
'no checking','critical/other existing credit',radio/tv,'\'(5702.2-7519.6]\'','no known savings','male single','\'(35.8-41.4]\'',skilled,good
'no checking','existing paid','used car','\'(7519.6-9337]\'',<100,'male single','\'(35.8-41.4]\'','high qualif/self emp/mgmt',good
'no checking','existing paid','used car','\'(7519.6-9337]\'','no known savings','male div/sep','\'(47-52.6]\'',skilled,good
0<=X<200,'critical/other existing credit','new car','\'(2067.4-3884.8]\'','no known savings','male single','\'(35.8-41.4]\'',skilled,good
'no checking','critical/other existing credit',radio/tv,'\'(-inf-2067.4]\'',<100,'female div/dep/mar','\'(63.8-69.4]\'','unemp/unskilled non res',good
0<=X<200,'existing paid',furniture/equipment,'\'(3884.8-5702.2]\'',<100,'male div/sep','\'(41.4-47]\'',skilled,bad
<0,'existing paid',education,'\'(7519.6-9337]\'',<100,'female div/dep/mar','\'(52.6-58.2]\'',skilled,bad
0<=X<200,'critical/other existing credit',business,'\'(2067.4-3884.8]\'','no known savings','male single','\'(30.2-35.8]\'',skilled,good
0<=X<200,'existing paid',business,'\'(14789.2-16606.6]\'',<100,'male single','\'(-inf-24.6]\'',skilled,bad
'no checking','critical/other existing credit','new car','\'(5702.2-7519.6]\'',<100,'male single','\'(30.2-35.8]\'','high qualif/self emp/mgmt',good
'no checking','all paid','used car','\'(7519.6-9337]\'','no known savings','male single','\'(35.8-41.4]\'',skilled,good
<0,'critical/other existing credit',business,'\'(2067.4-3884.8]\'',<100,'male single','\'(41.4-47]\'','high qualif/self emp/mgmt',good
'no checking','critical/other existing credit',radio/tv,'\'(-inf-2067.4]\'',<100,'male single','\'(41.4-47]\'',skilled,good
<0,'critical/other existing credit','new car','\'(2067.4-3884.8]\'',<100,'male single','\'(35.8-41.4]\'','unskilled resident',good
0<=X<200,'critical/other existing credit','used car','\'(5702.2-7519.6]\'',<100,'male single','\'(30.2-35.8]\'',skilled,good
'no checking','critical/other existing credit',radio/tv,'\'(-inf-2067.4]\'','no known savings','male single','\'(24.6-30.2]\'',skilled,good
'no checking','delayed previously','used car','\'(7519.6-9337]\'','no known savings','male single','\'(30.2-35.8]\'','high qualif/self emp/mgmt',good
<0,'existing paid',radio/tv,'\'(2067.4-3884.8]\'',<100,'female div/dep/mar','\'(24.6-30.2]\'','high qualif/self emp/mgmt',good
'no checking','critical/other existing credit',furniture/equipment,'\'(-inf-2067.4]\'',>=1000,'female div/dep/mar','\'(30.2-35.8]\'',skilled,good
'no checking','existing paid',furniture/equipment,'\'(2067.4-3884.8]\'','no known savings','female div/dep/mar','\'(30.2-35.8]\'','unskilled resident',good
<0,'existing paid',furniture/equipment,'\'(3884.8-5702.2]\'',<100,'male single','\'(41.4-47]\'',skilled,bad
<0,'critical/other existing credit','new car','\'(2067.4-3884.8]\'',<100,'male single','\'(41.4-47]\'',skilled,bad
'no checking','critical/other existing credit','new car','\'(2067.4-3884.8]\'','no known savings','male div/sep','\'(41.4-47]\'',skilled,good
'no checking','critical/other existing credit','used car','\'(9337-11154.4]\'','no known savings','male single','\'(41.4-47]\'',skilled,good
'no checking','existing paid',radio/tv,'\'(-inf-2067.4]\'','no known savings','male mar/wid','\'(35.8-41.4]\'',skilled,good
'no checking','existing paid',radio/tv,'\'(-inf-2067.4]\'',<100,'male single','\'(35.8-41.4]\'','high qualif/self emp/mgmt',good
<0,'existing paid',radio/tv,'\'(-inf-2067.4]\'',<100,'male single','\'(-inf-24.6]\'','high qualif/self emp/mgmt',good
<0,'existing paid','new car','\'(2067.4-3884.8]\'','no known savings','male single','\'(-inf-24.6]\'','unskilled resident',good
0<=X<200,'existing paid',education,'\'(2067.4-3884.8]\'','no known savings','male mar/wid','\'(24.6-30.2]\'',skilled,good
'no checking','delayed previously','used car','\'(2067.4-3884.8]\'',<100,'female div/dep/mar','\'(41.4-47]\'','unskilled resident',good
0<=X<200,'existing paid','new car','\'(2067.4-3884.8]\'','no known savings','female div/dep/mar','\'(30.2-35.8]\'','unskilled resident',good
'no checking','delayed previously',radio/tv,'\'(3884.8-5702.2]\'',<100,'female div/dep/mar','\'(30.2-35.8]\'',skilled,good
0<=X<200,'critical/other existing credit',furniture/equipment,'\'(3884.8-5702.2]\'',<100,'female div/dep/mar','\'(24.6-30.2]\'','unskilled resident',bad
0<=X<200,'existing paid',radio/tv,'\'(2067.4-3884.8]\'','no known savings','female div/dep/mar','\'(24.6-30.2]\'',skilled,good
'no checking','existing paid',business,'\'(2067.4-3884.8]\'',>=1000,'male div/sep','\'(24.6-30.2]\'',skilled,good
<0,'all paid',business,'\'(2067.4-3884.8]\'',<100,'male single','\'(30.2-35.8]\'',skilled,bad
0<=X<200,'no credits/ all paid',other,'\'(16606.6-inf)\'',<100,'female div/dep/mar','\'(30.2-35.8]\'','high qualif/self emp/mgmt',bad
'no checking','existing paid','used car','\'(2067.4-3884.8]\'',100<=X<500,'male single','\'(30.2-35.8]\'',skilled,good
<0,'existing paid','new car','\'(14789.2-16606.6]\'',<100,'male single','\'(63.8-69.4]\'','high qualif/self emp/mgmt',bad
<0,'existing paid',furniture/equipment,'\'(2067.4-3884.8]\'',100<=X<500,'male div/sep','\'(30.2-35.8]\'',skilled,bad
<0,'existing paid',furniture/equipment,'\'(2067.4-3884.8]\'',<100,'male single','\'(35.8-41.4]\'','high qualif/self emp/mgmt',bad
'no checking','critical/other existing credit',furniture/equipment,'\'(-inf-2067.4]\'',<100,'female div/dep/mar','\'(24.6-30.2]\'',skilled,good
'no checking','delayed previously',radio/tv,'\'(11154.4-12971.8]\'',500<=X<1000,'male single','\'(35.8-41.4]\'','high qualif/self emp/mgmt',good
<0,'existing paid',radio/tv,'\'(-inf-2067.4]\'',<100,'female div/dep/mar','\'(-inf-24.6]\'',skilled,bad
0<=X<200,'existing paid','new car','\'(-inf-2067.4]\'',<100,'male single','\'(24.6-30.2]\'',skilled,good
<0,'all paid',furniture/equipment,'\'(5702.2-7519.6]\'',<100,'male div/sep','\'(52.6-58.2]\'',skilled,bad
<0,'all paid','new car','\'(-inf-2067.4]\'',<100,'male single','\'(41.4-47]\'',skilled,bad
<0,'critical/other existing credit',furniture/equipment,'\'(-inf-2067.4]\'',<100,'female div/dep/mar','\'(-inf-24.6]\'',skilled,good
<0,'existing paid','used car','\'(9337-11154.4]\'',<100,'male single','\'(35.8-41.4]\'',skilled,bad
'no checking','existing paid',radio/tv,'\'(-inf-2067.4]\'','no known savings','male single','\'(52.6-58.2]\'',skilled,good
<0,'delayed previously','new car','\'(-inf-2067.4]\'',<100,'male single','\'(41.4-47]\'','unskilled resident',good
<0,'existing paid',furniture/equipment,'\'(-inf-2067.4]\'',<100,'male single','\'(-inf-24.6]\'','unskilled resident',good
0<=X<200,'existing paid',radio/tv,'\'(-inf-2067.4]\'',<100,'female div/dep/mar','\'(-inf-24.6]\'',skilled,bad
'no checking','critical/other existing credit','new car','\'(-inf-2067.4]\'',<100,'male single','\'(24.6-30.2]\'',skilled,good
'no checking','critical/other existing credit',radio/tv,'\'(-inf-2067.4]\'',500<=X<1000,'male single','\'(41.4-47]\'',skilled,good
<0,'existing paid',radio/tv,'\'(-inf-2067.4]\'',<100,'female div/dep/mar','\'(-inf-24.6]\'',skilled,good
0<=X<200,'delayed previously',radio/tv,'\'(-inf-2067.4]\'',100<=X<500,'male single','\'(24.6-30.2]\'','high qualif/self emp/mgmt',bad
>=200,'existing paid',radio/tv,'\'(-inf-2067.4]\'',<100,'female div/dep/mar','\'(24.6-30.2]\'','unskilled resident',bad
0<=X<200,'existing paid',radio/tv,'\'(-inf-2067.4]\'',<100,'male mar/wid','\'(24.6-30.2]\'','high qualif/self emp/mgmt',good
0<=X<200,'existing paid',education,'\'(5702.2-7519.6]\'',<100,'male single','\'(41.4-47]\'',skilled,bad
'no checking','critical/other existing credit','used car','\'(5702.2-7519.6]\'','no known savings','male single','\'(41.4-47]\'','high qualif/self emp/mgmt',good
'no checking','existing paid','new car','\'(2067.4-3884.8]\'','no known savings','male single','\'(41.4-47]\'','high qualif/self emp/mgmt',good
'no checking','existing paid','new car','\'(-inf-2067.4]\'',<100,'male single','\'(30.2-35.8]\'','unskilled resident',good
'no checking','existing paid',furniture/equipment,'\'(-inf-2067.4]\'','no known savings','male single','\'(30.2-35.8]\'',skilled,good
'no checking','critical/other existing credit','new car','\'(-inf-2067.4]\'',<100,'male single','\'(41.4-47]\'','unskilled resident',good
<0,'existing paid',furniture/equipment,'\'(-inf-2067.4]\'',<100,'female div/dep/mar','\'(41.4-47]\'',skilled,good
0<=X<200,'no credits/ all paid','new car','\'(7519.6-9337]\'',500<=X<1000,'female div/dep/mar','\'(24.6-30.2]\'',skilled,good
<0,'all paid',furniture/equipment,'\'(2067.4-3884.8]\'',500<=X<1000,'male single','\'(24.6-30.2]\'',skilled,bad
'no checking','existing paid','new car','\'(2067.4-3884.8]\'','no known savings','male single','\'(35.8-41.4]\'','high qualif/self emp/mgmt',good
'no checking','existing paid',furniture/equipment,'\'(-inf-2067.4]\'',<100,'male mar/wid','\'(41.4-47]\'','unskilled resident',bad
'no checking','existing paid',radio/tv,'\'(2067.4-3884.8]\'',100<=X<500,'male single','\'(30.2-35.8]\'',skilled,bad
0<=X<200,'critical/other existing credit',business,'\'(2067.4-3884.8]\'',<100,'male mar/wid','\'(35.8-41.4]\'','unemp/unskilled non res',good
<0,'delayed previously',business,'\'(2067.4-3884.8]\'',<100,'male single','\'(-inf-24.6]\'',skilled,bad
0<=X<200,'existing paid','used car','\'(3884.8-5702.2]\'',500<=X<1000,'female div/dep/mar','\'(24.6-30.2]\'',skilled,bad
'no checking','existing paid',furniture/equipment,'\'(9337-11154.4]\'',<100,'female div/dep/mar','\'(24.6-30.2]\'','high qualif/self emp/mgmt',bad
<0,'existing paid','new car','\'(-inf-2067.4]\'',<100,'female div/dep/mar','\'(24.6-30.2]\'',skilled,good
<0,'critical/other existing credit',radio/tv,'\'(-inf-2067.4]\'',>=1000,'female div/dep/mar','\'(52.6-58.2]\'','high qualif/self emp/mgmt',good
>=200,'critical/other existing credit',radio/tv,'\'(2067.4-3884.8]\'','no known savings','male single','\'(47-52.6]\'','unskilled resident',good
0<=X<200,'critical/other existing credit',radio/tv,'\'(-inf-2067.4]\'',<100,'male single','\'(35.8-41.4]\'','unskilled resident',good
<0,'existing paid','new car','\'(3884.8-5702.2]\'',<100,'male single','\'(41.4-47]\'','unskilled resident',bad
0<=X<200,'existing paid',furniture/equipment,'\'(2067.4-3884.8]\'',100<=X<500,'male single','\'(24.6-30.2]\'',skilled,good
'no checking','critical/other existing credit',radio/tv,'\'(-inf-2067.4]\'',<100,'male mar/wid','\'(24.6-30.2]\'',skilled,good
0<=X<200,'delayed previously','new car','\'(2067.4-3884.8]\'',<100,'male div/sep','\'(41.4-47]\'',skilled,good
'no checking','existing paid','new car','\'(2067.4-3884.8]\'','no known savings','male single','\'(24.6-30.2]\'',skilled,good
'no checking','existing paid',radio/tv,'\'(2067.4-3884.8]\'',500<=X<1000,'male single','\'(30.2-35.8]\'',skilled,bad
0<=X<200,'existing paid',repairs,'\'(-inf-2067.4]\'',<100,'male mar/wid','\'(-inf-24.6]\'','unskilled resident',good
0<=X<200,'existing paid',radio/tv,'\'(-inf-2067.4]\'','no known savings','female div/dep/mar','\'(24.6-30.2]\'',skilled,good
0<=X<200,'critical/other existing credit',radio/tv,'\'(2067.4-3884.8]\'',500<=X<1000,'male single','\'(-inf-24.6]\'','unskilled resident',bad
'no checking','existing paid',radio/tv,'\'(2067.4-3884.8]\'',<100,'female div/dep/mar','\'(52.6-58.2]\'','high qualif/self emp/mgmt',good
'no checking','existing paid',radio/tv,'\'(5702.2-7519.6]\'','no known savings','male mar/wid','\'(24.6-30.2]\'',skilled,good
<0,'critical/other existing credit','new car','\'(3884.8-5702.2]\'',<100,'male single','\'(35.8-41.4]\'','unskilled resident',good
0<=X<200,'existing paid',repairs,'\'(-inf-2067.4]\'',100<=X<500,'male single','\'(-inf-24.6]\'',skilled,good
'no checking','existing paid','new car','\'(5702.2-7519.6]\'',<100,'male single','\'(41.4-47]\'','unskilled resident',good
<0,'all paid','new car','\'(-inf-2067.4]\'',<100,'female div/dep/mar','\'(24.6-30.2]\'','unemp/unskilled non res',bad
<0,'existing paid',business,'\'(5702.2-7519.6]\'',<100,'male single','\'(35.8-41.4]\'',skilled,bad
'no checking','critical/other existing credit',radio/tv,'\'(2067.4-3884.8]\'',<100,'female div/dep/mar','\'(30.2-35.8]\'',skilled,good
>=200,'existing paid',radio/tv,'\'(-inf-2067.4]\'',500<=X<1000,'female div/dep/mar','\'(52.6-58.2]\'','unskilled resident',good
0<=X<200,'existing paid',radio/tv,'\'(-inf-2067.4]\'',<100,'female div/dep/mar','\'(63.8-69.4]\'',skilled,good
0<=X<200,'delayed previously',business,'\'(2067.4-3884.8]\'','no known savings','male single','\'(41.4-47]\'',skilled,good
'no checking','delayed previously','new car','\'(2067.4-3884.8]\'',<100,'male single','\'(41.4-47]\'','unskilled resident',bad
0<=X<200,'all paid','new car','\'(-inf-2067.4]\'',100<=X<500,'male mar/wid','\'(24.6-30.2]\'',skilled,bad
0<=X<200,'critical/other existing credit',furniture/equipment,'\'(7519.6-9337]\'',<100,'male single','\'(47-52.6]\'',skilled,bad
'no checking','existing paid',business,'\'(3884.8-5702.2]\'',<100,'male single','\'(30.2-35.8]\'','high qualif/self emp/mgmt',bad
>=200,'existing paid','new car','\'(2067.4-3884.8]\'',100<=X<500,'female div/dep/mar','\'(24.6-30.2]\'','high qualif/self emp/mgmt',good
<0,'existing paid','used car','\'(7519.6-9337]\'',<100,'male single','\'(24.6-30.2]\'',skilled,bad
'no checking','critical/other existing credit',furniture/equipment,'\'(-inf-2067.4]\'',<100,'male single','\'(24.6-30.2]\'','unskilled resident',good
<0,'critical/other existing credit',furniture/equipment,'\'(-inf-2067.4]\'',<100,'female div/dep/mar','\'(24.6-30.2]\'',skilled,good
>=200,'no credits/ all paid',business,'\'(5702.2-7519.6]\'',<100,'male div/sep','\'(30.2-35.8]\'',skilled,good
'no checking','existing paid',radio/tv,'\'(-inf-2067.4]\'',100<=X<500,'female div/dep/mar','\'(63.8-69.4]\'',skilled,good
<0,'existing paid','used car','\'(5702.2-7519.6]\'',<100,'male single','\'(24.6-30.2]\'','high qualif/self emp/mgmt',good
0<=X<200,'critical/other existing credit',radio/tv,'\'(-inf-2067.4]\'',<100,'male single','\'(47-52.6]\'','unskilled resident',good
'no checking','critical/other existing credit',education,'\'(2067.4-3884.8]\'','no known savings','male single','\'(35.8-41.4]\'','unskilled resident',good
'no checking','all paid',radio/tv,'\'(-inf-2067.4]\'',100<=X<500,'male single','\'(30.2-35.8]\'','unskilled resident',good
<0,'existing paid',radio/tv,'\'(-inf-2067.4]\'','no known savings','male mar/wid','\'(-inf-24.6]\'','unskilled resident',good
<0,'existing paid',furniture/equipment,'\'(3884.8-5702.2]\'',<100,'male single','\'(24.6-30.2]\'','high qualif/self emp/mgmt',good
'no checking','existing paid','new car','\'(2067.4-3884.8]\'','no known savings','male single','\'(47-52.6]\'',skilled,good
'no checking','existing paid',furniture/equipment,'\'(-inf-2067.4]\'',<100,'female div/dep/mar','\'(30.2-35.8]\'','unskilled resident',good
<0,'existing paid','used car','\'(2067.4-3884.8]\'',<100,'male div/sep','\'(35.8-41.4]\'','high qualif/self emp/mgmt',good
'no checking','existing paid',radio/tv,'\'(-inf-2067.4]\'',<100,'male single','\'(35.8-41.4]\'',skilled,good
<0,'existing paid',radio/tv,'\'(-inf-2067.4]\'',<100,'male single','\'(-inf-24.6]\'',skilled,bad
0<=X<200,'critical/other existing credit','used car','\'(3884.8-5702.2]\'',100<=X<500,'male single','\'(24.6-30.2]\'',skilled,good
