@relation 'SET09120_CW1_40735842_CLEANING-weka.filters.unsupervised.attribute.Remove-R1-4,6-7,9'

@attribute credit_amount numeric
@attribute age numeric
@attribute class {good,bad}

@data
1169,67,good
5951,22,bad
2096,49,good
7882,45,good
4870,53,bad
9055,35,good
2835,53,good
6948,35,good
3059,61,good
5234,28,bad
1295,25,bad
4308,24,bad
1567,22,good
1199,60,bad
1403,28,good
1282,32,bad
2424,53,good
8072,25,good
12579,44,bad
3430,31,good
2134,48,good
2647,44,good
2241,48,good
1804,44,good
2069,26,good
1374,36,good
426,39,good
409,42,good
2415,34,good
6836,63,bad
1913,36,good
4020,27,good
5866,30,good
1264,57,good
1474,33,good
4746,25,bad
6110,31,good
2100,37,bad
1225,37,good
458,24,good
2333,30,good
1158,26,good
6204,44,good
6187,24,good
6143,58,bad
1393,35,good
2299,39,good
1352,23,good
7228,39,good
2073,28,good
2333,29,good
5965,30,good
1262,25,good
3378,31,good
2225,57,bad
783,26,good
6468,52,bad
9566,31,good
1961,23,good
6229,23,bad
1391,27,good
1537,50,good
1953,61,bad
14421,25,bad
3181,26,good
5190,48,good
2171,29,good
1007,22,good
1819,37,bad
2394,25,good
8133,30,good
730,46,good
1164,51,good
5954,41,good
1977,40,bad
1526,66,good
3965,34,bad
4771,51,good
9436,39,good
3832,22,good
5943,44,bad
1213,47,good
1568,24,good
1755,58,good
2315,52,good
1412,29,good
1295,27,good
12612,47,bad
2249,30,good
1108,28,bad
618,56,good
1409,54,good
797,33,bad
3617,20,good
1318,54,good
15945,58,bad
2012,61,good
2622,34,good
2337,36,good
7057,36,good
1469,41,good
2323,24,good
932,24,good
1919,35,good
2445,26,good
11938,39,bad
6458,39,bad
6078,32,good
7721,30,good
1410,35,good
1449,31,good
392,23,good
6260,28,good
7855,25,bad
1680,35,good
3578,47,good
7174,30,bad
2132,27,good
4281,23,bad
2366,36,good
1835,25,bad
3868,41,good
1768,24,good
781,63,good
1924,27,bad
2121,30,good
701,40,good
639,30,bad
1860,34,good
3499,29,bad
8487,24,good
6887,29,bad
2708,27,good
1984,47,good
10144,21,good
1240,38,good
8613,27,good
766,66,bad
2728,35,good
1881,44,good
709,27,good
4795,30,good
3416,27,good
2462,22,bad
2288,23,good
3566,30,good
860,39,good
682,51,good
5371,28,good
1582,46,good
1346,42,good
1924,38,good
5848,24,good
7758,29,good
6967,36,good
1282,20,bad
1288,48,good
339,45,good
3512,38,good
1898,34,good
2872,36,good
1055,30,good
1262,36,good
7308,70,good
909,36,good
2978,32,good
1131,33,bad
1577,20,good
3972,25,good
1935,31,bad
950,33,bad
763,26,good
2064,34,bad
1414,33,good
3414,26,bad
7485,53,bad
2577,42,good
338,52,good
1963,31,good
571,65,good
9572,28,bad
4455,30,bad
1647,40,bad
3777,50,good
884,36,bad
1360,31,good
5129,74,bad
1175,68,good
674,20,bad
3244,33,good
4591,54,bad
3844,34,bad
3915,36,bad
2108,29,good
3031,21,bad
1501,34,bad
1382,28,good
951,27,bad
2760,36,good
4297,40,bad
936,52,good
1168,27,good
5117,26,good
902,21,bad
1495,38,good
10623,38,good
1935,43,good
1424,26,good
6568,21,good
1413,55,good
3074,33,good
3835,45,good
5293,50,bad
1908,66,bad
3342,51,good
932,39,good
3104,31,good
3913,23,good
3021,24,good
1364,64,good
625,26,good
1200,23,good
707,30,good
2978,32,good
4657,30,good
2613,27,good
10961,27,bad
7865,53,bad
1478,22,bad
3149,22,good
4210,26,bad
2507,51,good
2141,35,good
866,25,good
1544,42,good
1823,30,bad
14555,23,bad
2767,61,bad
1291,35,good
2522,39,good
915,29,bad
1595,51,good
4605,24,bad
1185,27,good
3447,35,good
1258,25,good
717,52,good
1204,35,good
1925,26,good
433,22,bad
666,39,good
2251,46,good
2150,24,bad
4151,35,good
2030,24,good
7418,27,good
2684,35,good
2149,29,bad
3812,23,good
1154,57,good
1657,27,good
1603,55,good
5302,36,good
2748,57,good
1231,32,good
802,37,bad
6304,36,good
1533,38,good
8978,45,bad
999,25,good
2662,32,good
1402,37,good
12169,36,good
3060,28,bad
11998,34,bad
2697,32,good
2404,26,good
1262,49,good
4611,32,bad
1901,29,good
3368,23,good
1574,50,good
1445,49,good
1520,63,good
3878,37,good
10722,35,good
4788,26,good
7582,31,good
1092,49,good
1024,48,bad
1076,26,good
9398,28,bad
6419,44,good
4796,56,good
7629,46,good
9960,26,bad
4675,20,good
1287,45,good
2515,43,good
2745,32,good
672,54,good
3804,42,bad
1344,37,bad
1038,49,good
10127,44,bad
1543,33,good
4811,24,good
727,33,bad
1237,24,bad
276,22,good
5381,40,good
5511,25,good
3749,26,good
685,25,bad
1494,29,good
2746,31,bad
708,38,good
4351,48,good
701,32,good
3643,27,good
4249,28,bad
1938,32,bad
2910,34,good
2659,28,good
1028,36,good
3398,39,good
5801,49,good
1525,34,good
4473,31,good
1068,28,good
6615,75,good
1864,30,bad
7408,24,bad
11590,24,bad
4110,23,bad
3384,44,bad
2101,23,good
1275,24,bad
4169,28,good
1521,31,good
5743,24,good
3599,26,good
3213,25,good
4439,33,good
3949,37,good
1459,43,good
882,23,good
3758,23,good
1743,34,good
1136,32,bad
1236,23,good
959,29,bad
3229,38,good
6199,28,bad
727,46,good
1246,23,bad
2331,49,good
4463,26,bad
776,28,good
2406,23,bad
1239,61,good
3399,37,good
2247,36,good
1766,21,good
2473,25,bad
1542,36,good
3850,27,good
3650,22,good
3446,42,bad
3001,40,good
3079,36,good
6070,33,good
2146,23,good
13756,63,good
14782,60,bad
7685,37,bad
2320,34,good
846,36,good
14318,57,bad
362,52,good
2212,39,good
12976,38,bad
1283,25,good
1330,26,good
4272,26,good
2238,25,good
1126,21,good
7374,40,good
2326,27,good
1449,27,good
1820,30,good
983,19,good
3249,39,good
1957,31,good
2406,31,good
11760,32,good
2578,55,good
2348,46,good
1223,46,bad
1516,43,good
1473,39,good
1887,28,good
8648,27,bad
802,27,good
2899,43,good
2039,22,bad
2197,43,good
1053,27,good
3235,26,good
939,28,bad
1967,20,good
7253,35,good
2292,42,bad
1597,40,good
1381,35,bad
5842,35,good
2579,33,bad
8471,23,good
2782,31,good
1042,33,bad
3186,20,good
2028,30,good
958,47,good
1591,34,good
2762,25,bad
2779,21,good
2743,29,good
1149,46,good
1313,20,good
1190,55,bad
3448,74,good
11328,29,bad
1872,36,good
2058,33,good
2136,25,good
1484,25,bad
660,23,good
1287,37,good
3394,65,good
609,26,bad
1884,39,good
1620,30,good
2629,29,good
719,41,bad
5096,30,bad
1244,41,good
1842,34,bad
2576,35,good
1424,55,good
1512,61,bad
11054,30,good
518,29,good
2759,34,good
2670,35,good
4817,31,bad
2679,29,good
3905,36,good
3386,35,bad
343,27,good
4594,32,good
3620,37,good
1721,36,good
3017,34,good
754,38,good
1950,34,good
2924,63,good
1659,29,bad
7238,32,good
2764,26,good
4679,35,good
3092,22,bad
448,23,bad
654,28,bad
1238,36,good
1245,33,bad
3114,26,bad
2569,21,good
5152,25,good
1037,39,good
1478,44,good
3573,23,good
1201,26,good
3622,57,good
960,30,good
1163,44,good
1209,47,bad
3077,52,good
3757,62,good
1418,35,good
3518,26,good
1934,26,good
8318,42,bad
1237,27,good
368,38,good
2122,39,good
2996,20,bad
9034,29,bad
1585,40,good
1301,32,good
1323,28,good
3123,27,bad
5493,42,good
1126,49,good
1216,38,bad
1207,24,bad
1309,27,bad
2360,36,good
6850,34,bad
1413,28,good
8588,45,good
759,26,bad
4686,32,good
2687,26,good
585,20,good
2255,54,good
609,37,good
1361,40,good
7127,23,bad
1203,43,good
700,36,good
5507,44,good
3190,24,bad
7119,53,bad
3488,23,good
1113,26,good
7966,30,good
1532,31,good
1503,42,good
2302,31,bad
662,41,good
2273,32,good
2631,28,bad
1503,41,good
1311,26,good
3105,25,good
2319,33,bad
1374,75,good
3612,37,good
7763,42,bad
3049,45,good
1534,23,bad
2032,60,good
6350,31,bad
2864,34,bad
1255,61,good
1333,43,bad
2022,37,good
1552,32,good
626,24,bad
8858,35,good
996,23,good
1750,45,good
6999,34,bad
1995,27,good
1199,67,good
1331,22,bad
2278,28,bad
5003,29,bad
3552,27,bad
1928,31,bad
2964,49,good
1546,24,bad
683,29,good
12389,37,bad
4712,37,good
1553,23,good
1372,36,bad
2578,34,good
3979,41,good
6758,31,bad
3234,23,bad
5954,38,good
5433,26,good
806,22,good
1082,27,good
2788,24,good
2930,27,good
1927,33,good
2820,27,bad
937,27,good
1056,30,bad
3124,49,good
1388,26,good
2384,33,bad
2133,52,good
2039,20,bad
2799,36,good
1289,21,good
1217,47,bad
2246,60,bad
385,58,good
1965,42,good
1572,36,good
2718,20,bad
1358,40,bad
931,32,bad
1442,23,bad
4241,36,bad
2775,31,bad
3863,32,good
2329,45,good
918,30,bad
1837,34,bad
3349,28,bad
1275,23,good
2828,22,good
4526,74,good
2671,50,bad
2051,33,good
1300,45,good
741,22,bad
1240,48,bad
3357,29,good
3632,22,good
1808,22,bad
12204,48,good
9157,27,good
3676,37,good
3441,21,bad
640,49,good
3652,27,good
1530,32,bad
3914,38,bad
1858,22,good
2600,65,bad
1979,35,good
2116,41,good
1437,29,bad
4042,36,good
3832,64,good
3660,28,good
1553,44,bad
1444,23,good
1980,19,bad
1355,25,bad
1393,47,good
1376,28,good
15653,21,good
1493,34,good
4370,26,bad
750,27,bad
1308,38,good
4623,40,bad
1851,33,good
1880,32,good
7980,27,bad
4583,32,good
1386,26,bad
947,38,bad
684,40,bad
7476,50,good
1922,37,bad
2303,45,bad
8086,42,bad
2346,35,good
3973,22,good
888,41,bad
10222,37,good
4221,28,good
6361,41,good
1297,23,good
900,23,bad
2241,50,good
1050,35,good
1047,50,good
6314,27,good
3496,34,good
3609,27,good
4843,43,bad
3017,47,good
4139,27,good
5742,31,good
10366,42,good
2080,24,good
2580,41,bad
4530,26,good
5150,33,good
5595,24,bad
2384,64,good
1453,26,good
1538,56,good
2279,37,good
1478,33,good
5103,47,good
9857,31,good
6527,34,good
1347,27,good
5500,30,good
2753,35,good
3651,31,good
975,25,good
2631,25,good
2896,29,good
4716,44,good
2284,28,good
1236,50,good
1103,29,good
926,38,good
1800,24,good
1905,40,good
1123,29,bad
6331,46,bad
1377,47,good
2503,41,good
2528,32,good
5324,35,good
6560,24,bad
2969,25,bad
1206,25,good
2118,37,good
629,32,good
1198,35,bad
2476,46,good
1138,25,good
14027,27,bad
7596,63,good
3077,40,good
1505,32,good
3148,31,good
6148,31,good
1337,34,bad
433,24,bad
1228,24,bad
790,66,good
2570,21,bad
250,41,good
1316,47,good
1882,25,bad
6416,59,bad
1275,36,good
6403,33,good
1987,21,bad
760,44,good
2603,28,good
3380,37,good
3990,29,good
11560,23,bad
4380,35,good
6761,45,good
4280,26,bad
2325,32,good
1048,23,good
3160,41,good
2483,22,good
14179,30,good
1797,28,good
2511,23,good
1274,37,bad
5248,26,good
3029,33,good
428,49,good
976,23,bad
841,23,good
5771,25,good
1555,55,bad
1285,32,bad
1299,74,good
1271,39,bad
1393,31,good
691,35,bad
5045,59,good
2124,21,bad
2214,24,good
12680,30,bad
2463,27,good
1155,40,good
3108,31,bad
2901,31,good
3617,28,good
1655,63,good
2812,26,good
8065,25,bad
3275,36,good
2223,52,good
1480,66,good
1371,25,bad
3535,37,good
3509,25,good
5711,38,good
3872,67,good
4933,25,bad
1940,60,good
1410,31,good
836,23,bad
6468,60,good
1941,35,good
2675,40,good
2751,38,good
6224,50,bad
5998,27,bad
1188,39,bad
6313,41,good
1221,27,good
2892,51,good
3062,32,good
2301,22,good
7511,51,bad
1258,22,good
717,54,good
1549,35,good
1597,54,good
1795,48,good
4272,24,good
976,35,good
7472,24,good
9271,24,bad
590,26,good
930,65,good
9283,55,good
1778,26,bad
907,26,good
484,28,good
9629,24,bad
3051,54,bad
3931,46,bad
7432,54,good
1338,62,good
1554,24,good
15857,43,good
1345,26,bad
1101,27,good
3016,24,good
2712,41,bad
731,47,good
3780,35,good
1602,30,good
3966,33,bad
4165,36,bad
8335,47,bad
6681,38,good
2375,44,good
1216,23,bad
11816,29,bad
5084,42,good
2327,25,bad
1082,48,bad
886,21,good
601,23,good
2957,63,good
2611,46,good
5179,29,bad
2993,28,good
1943,23,bad
1559,50,good
3422,47,good
3976,35,good
6761,68,bad
1249,28,good
1364,59,good
709,57,bad
2235,33,bad
4042,43,good
1471,35,good
1442,32,bad
10875,45,good
1474,33,good
894,40,good
3343,28,good
3959,29,bad
3577,26,good
5804,27,good
2169,28,bad
2439,35,bad
4526,32,good
2210,25,bad
2221,20,good
2389,27,good
3331,42,good
7409,37,good
652,24,good
7678,40,good
1343,46,good
1382,26,good
874,24,good
3590,29,good
1322,40,good
1940,36,good
3595,28,good
1422,27,bad
6742,36,good
7814,38,good
9277,48,good
2181,36,good
1098,65,good
4057,43,bad
7999,53,bad
2825,34,good
15672,23,bad
6614,34,good
7824,40,good
2442,43,good
1829,46,good
2171,38,good
5800,34,good
1169,29,good
8947,31,good
2606,28,good
1592,35,good
2186,33,good
4153,42,bad
2625,43,bad
3485,44,good
10477,42,good
1386,40,good
1278,36,good
1107,20,good
3763,24,good
3711,27,good
3594,46,good
3195,33,good
4454,34,good
4736,25,bad
2991,25,good
2142,28,good
3161,31,bad
18424,32,bad
2848,32,good
14896,68,bad
2359,33,bad
3345,39,bad
1817,28,good
12749,37,good
1366,22,bad
2002,30,good
6872,55,bad
697,46,bad
1049,21,good
10297,39,bad
1867,58,good
1344,43,good
1747,24,good
1670,22,bad
1224,30,good
522,42,good
1498,23,good
1919,30,bad
745,28,bad
2063,30,good
6288,42,bad
6842,46,good
3527,45,good
1546,31,good
929,31,good
1455,42,good
1845,46,good
8358,30,good
3349,30,bad
2859,38,good
1533,43,bad
3621,31,bad
3590,40,good
2145,24,bad
4113,28,bad
10974,26,bad
1893,29,good
1231,57,good
3656,49,good
1154,37,good
4006,45,bad
3069,30,good
1740,30,good
2353,47,good
3556,29,good
2397,35,bad
454,22,good
1715,26,good
2520,23,bad
3568,54,good
7166,29,good
3939,40,good
1514,22,good
7393,43,good
1193,29,bad
7297,36,bad
2831,33,good
1258,57,good
753,64,good
2427,42,good
2538,47,bad
1264,25,bad
8386,49,bad
4844,33,bad
2923,28,good
8229,26,bad
2028,30,good
1433,25,good
6289,33,good
1409,64,good
6579,29,good
1743,48,good
3565,37,good
1569,34,good
1936,23,good
3959,30,good
2390,50,good
1736,31,good
3857,40,good
804,38,good
1845,23,bad
4576,27,good
